Node,X,Y,U1,U2,S11,S22,S12
1.000000000000000000e+00,0.000000000000000000e+00,0.000000000000000000e+00,0.000000000000000000e+00,0.000000000000000000e+00,8.480247497558593750e+00,2.544074296951293945e+00,1.990747094154357910e+00
2.000000000000000000e+00,1.000000014901161194e-01,0.000000000000000000e+00,3.674773818573839890e-10,2.464734527585221713e-10,7.902766704559326172e+00,6.191380620002746582e-01,1.102691054344177246e+00
3.000000000000000000e+00,2.000000029802322388e-01,0.000000000000000000e+00,6.479869418818395843e-10,4.012870591374451124e-10,5.957088947296142578e+00,2.212936133146286011e-01,3.307348787784576416e-01
4.000000000000000000e+00,3.000000119209289551e-01,0.000000000000000000e+00,8.995880707018955036e-10,5.318616658200880920e-10,5.298935890197753906e+00,5.104542896151542664e-02,2.008137255907058716e-01
5.000000000000000000e+00,4.000000059604644775e-01,0.000000000000000000e+00,1.139290661811287464e-09,6.441344679863902911e-10,5.040052413940429688e+00,2.099113725125789642e-02,1.142246797680854797e-01
6.000000000000000000e+00,5.000000000000000000e-01,0.000000000000000000e+00,1.372542857147607265e-09,7.454986628019355521e-10,4.900586605072021484e+00,7.635141257196664810e-03,7.283511757850646973e-02
7.000000000000000000e+00,6.000000238418579102e-01,0.000000000000000000e+00,1.602056598493106776e-09,8.395271700045725538e-10,4.820779323577880859e+00,3.301192307844758034e-03,4.682871699333190918e-02
8.000000000000000000e+00,6.999999880790710449e-01,0.000000000000000000e+00,1.829319806745388632e-09,9.287002833424651271e-10,4.773055076599121094e+00,1.753630349412560463e-03,2.991216629743576050e-02
9.000000000000000000e+00,8.000000119209289551e-01,0.000000000000000000e+00,2.055252412702657239e-09,1.014746398020349716e-09,4.745052814483642578e+00,1.564703532494604588e-03,1.812651939690113068e-02
1.000000000000000000e+01,8.999999761581420898e-01,0.000000000000000000e+00,2.280451383285253542e-09,1.098958368750402315e-09,4.729771137237548828e+00,1.977353822439908981e-03,9.606500156223773956e-03
1.100000000000000000e+01,1.000000000000000000e+00,0.000000000000000000e+00,2.505319507406511548e-09,1.182335784832844183e-09,4.723033905029296875e+00,2.671614754945039749e-03,3.252922557294368744e-03
1.200000000000000000e+01,1.100000023841857910e+00,0.000000000000000000e+00,2.730135229001007247e-09,1.265674343109424171e-09,4.722171306610107422e+00,3.483825596049427986e-03,-1.595808076672255993e-03
1.300000000000000000e+01,1.200000047683715820e+00,0.000000000000000000e+00,2.955092615053445115e-09,1.349620970536591358e-09,4.725402832031250000e+00,4.331223666667938232e-03,-5.364647600799798965e-03
1.400000000000000000e+01,1.299999952316284180e+00,0.000000000000000000e+00,3.180328000951249123e-09,1.434711016656819993e-09,4.731502532958984375e+00,5.170580931007862091e-03,-8.336913771927356720e-03
1.500000000000000000e+01,1.399999976158142090e+00,0.000000000000000000e+00,3.405937976097561659e-09,1.521394121795083265e-09,4.739602088928222656e+00,5.979709792882204056e-03,-1.070823986083269119e-02
1.600000000000000000e+01,1.500000000000000000e+00,0.000000000000000000e+00,3.631988043650835607e-09,1.610051536538037453e-09,4.749074935913085938e+00,6.747808307409286499e-03,-1.261749677360057831e-02
1.700000000000000000e+01,1.600000023841857910e+00,0.000000000000000000e+00,3.858522390487451048e-09,1.701010110544132203e-09,4.759460449218750000e+00,7.470349315553903580e-03,-1.416572183370590210e-02
1.800000000000000000e+01,1.700000047683715820e+00,0.000000000000000000e+00,4.085568772183023611e-09,1.794552284550832155e-09,4.770416259765625000e+00,8.146296255290508270e-03,-1.542794331908226013e-02
1.900000000000000000e+01,1.799999952316284180e+00,0.000000000000000000e+00,4.313142287770688199e-09,1.890923639891184393e-09,4.781684398651123047e+00,8.776532486081123352e-03,-1.646088436245918274e-02
2.000000000000000000e+01,1.899999976158142090e+00,0.000000000000000000e+00,4.541250486767012262e-09,1.990339670854268661e-09,4.793071269989013672e+00,9.362934157252311707e-03,-1.730818301439285278e-02
2.100000000000000000e+01,2.000000000000000000e+00,0.000000000000000000e+00,4.769891148725946550e-09,2.092988893309666310e-09,4.804429054260253906e+00,9.907900355756282806e-03,-1.800377108156681061e-02
2.200000000000000000e+01,2.099999904632568359e+00,0.000000000000000000e+00,4.999058500487763013e-09,2.199038728889490812e-09,4.815645694732666016e+00,1.041400339454412460e-02,-1.857446506619453430e-02
2.300000000000000000e+01,2.200000047683715820e+00,0.000000000000000000e+00,5.228743216179054798e-09,2.308637281345227166e-09,4.826636314392089844e+00,1.088381651788949966e-02,-1.904173009097576141e-02
2.400000000000000000e+01,2.299999952316284180e+00,0.000000000000000000e+00,5.458930640855896854e-09,2.421915779038386063e-09,4.837337017059326172e+00,1.131989341229200363e-02,-1.942272670567035675e-02
2.500000000000000000e+01,2.400000095367431641e+00,0.000000000000000000e+00,5.689606563663573979e-09,2.538992127654182696e-09,4.847701072692871094e+00,1.172457542270421982e-02,-1.973164081573486328e-02
2.600000000000000000e+01,2.500000000000000000e+00,0.000000000000000000e+00,5.920752332855272471e-09,2.659970244067721978e-09,4.857694625854492188e+00,1.210014615207910538e-02,-1.997988857328891754e-02
2.700000000000000000e+01,2.599999904632568359e+00,0.000000000000000000e+00,6.152349740773388476e-09,2.784944497236097050e-09,4.867292881011962891e+00,1.244864705950021744e-02,-2.017712593078613281e-02
2.800000000000000000e+01,2.700000047683715820e+00,0.000000000000000000e+00,6.384381023849527992e-09,2.913999264109179421e-09,4.876480579376220703e+00,1.277200225740671158e-02,-2.033131383359432220e-02
2.900000000000000000e+01,2.799999952316284180e+00,0.000000000000000000e+00,6.616825309890828066e-09,3.047208929629618979e-09,4.885249137878417969e+00,1.307202037423849106e-02,-2.044903114438056946e-02
3.000000000000000000e+01,2.900000095367431641e+00,0.000000000000000000e+00,6.849663058972055296e-09,3.184642327624942482e-09,4.893593788146972656e+00,1.335028279572725296e-02,-2.053605206310749054e-02
3.100000000000000000e+01,3.000000000000000000e+00,0.000000000000000000e+00,7.082873842989556579e-09,3.326359188093874764e-09,4.901515483856201172e+00,1.360835228115320206e-02,-2.059701457619667053e-02
3.200000000000000000e+01,3.099999904632568359e+00,0.000000000000000000e+00,7.316438566107308361e-09,3.472414578098437232e-09,4.909018516540527344e+00,1.384757738560438156e-02,-2.063609659671783447e-02
3.300000000000000000e+01,3.200000047683715820e+00,0.000000000000000000e+00,7.550338132489287091e-09,3.622857791540923245e-09,4.916109085083007812e+00,1.406924519687891006e-02,-2.065677568316459656e-02
3.400000000000000000e+01,3.299999952316284180e+00,0.000000000000000000e+00,7.784553446299469215e-09,3.777732349163898107e-09,4.922795772552490234e+00,1.427458412945270538e-02,-2.066192962229251862e-02
3.500000000000000000e+01,3.400000095367431641e+00,0.000000000000000000e+00,8.019065411701831181e-09,3.937079107174668025e-09,4.929089546203613281e+00,1.446464005857706070e-02,-2.065426856279373169e-02
3.600000000000000000e+01,3.500000000000000000e+00,0.000000000000000000e+00,8.253856265127978986e-09,4.100932038397786528e-09,4.935002326965332031e+00,1.464049331843852997e-02,-2.063586376607418060e-02
3.700000000000000000e+01,3.599999904632568359e+00,0.000000000000000000e+00,8.488908243009518628e-09,4.269323561345572671e-09,4.940546512603759766e+00,1.480305753648281097e-02,-2.060873806476593018e-02
3.800000000000000000e+01,3.700000047683715820e+00,0.000000000000000000e+00,8.724206246313315205e-09,4.442282985905876558e-09,4.945736408233642578e+00,1.495322026312351227e-02,-2.057453803718090057e-02
3.900000000000000000e+01,3.799999952316284180e+00,0.000000000000000000e+00,8.959732511470974714e-09,4.619834736985239942e-09,4.950585842132568359e+00,1.509185228496789932e-02,-2.053457871079444885e-02
4.000000000000000000e+01,3.900000095367431641e+00,0.000000000000000000e+00,9.195473715806201653e-09,4.802002795400994728e-09,4.955109596252441406e+00,1.521967258304357529e-02,-2.049024589359760284e-02
4.100000000000000000e+01,4.000000000000000000e+00,0.000000000000000000e+00,9.431412095750602020e-09,4.988806256989164467e-09,4.959322452545166016e+00,1.533746439963579178e-02,-2.044244855642318726e-02
4.200000000000000000e+01,4.099999904632568359e+00,0.000000000000000000e+00,9.667536104984719714e-09,5.180264217585772712e-09,4.963239192962646484e+00,1.544586848467588425e-02,-2.039222419261932373e-02
4.300000000000000000e+01,4.199999809265136719e+00,0.000000000000000000e+00,9.903831532653839531e-09,5.376392664402374066e-09,4.966874599456787109e+00,1.554554142057895660e-02,-2.034032531082630157e-02
4.400000000000000000e+01,4.300000190734863281e+00,0.000000000000000000e+00,1.014028772061692507e-08,5.577206696472103431e-09,4.970243453979492188e+00,1.563705131411552429e-02,-2.028748206794261932e-02
4.500000000000000000e+01,4.400000095367431641e+00,0.000000000000000000e+00,1.037688956984084143e-08,5.782717416025207058e-09,4.973360061645507812e+00,1.572103984653949738e-02,-2.023406140506267548e-02
4.600000000000000000e+01,4.500000000000000000e+00,0.000000000000000000e+00,1.061362731036297191e-08,5.992936813470350899e-09,4.976238727569580078e+00,1.579796336591243744e-02,-2.018077671527862549e-02
4.700000000000000000e+01,4.599999904632568359e+00,0.000000000000000000e+00,1.085049028404228011e-08,6.207874214680941805e-09,4.978893280029296875e+00,1.586834527552127838e-02,-2.012796886265277863e-02
4.800000000000000000e+01,4.699999809265136719e+00,0.000000000000000000e+00,1.108746872091614932e-08,6.427539389619596477e-09,4.981337070465087891e+00,1.593265868723392487e-02,-2.007598057389259338e-02
4.900000000000000000e+01,4.800000190734863281e+00,0.000000000000000000e+00,1.132455462737880225e-08,6.651939887802882367e-09,4.983582973480224609e+00,1.599130965769290924e-02,-2.002515643835067749e-02
5.000000000000000000e+01,4.900000095367431641e+00,0.000000000000000000e+00,1.156173734528920249e-08,6.881080594212107826e-09,4.985643386840820312e+00,1.604478992521762848e-02,-1.997551880776882172e-02
5.100000000000000000e+01,5.000000000000000000e+00,0.000000000000000000e+00,1.179900888104157275e-08,7.114968170185420604e-09,4.987530708312988281e+00,1.609341241419315338e-02,-1.992747932672500610e-02
5.200000000000000000e+01,5.099999904632568359e+00,0.000000000000000000e+00,1.203636124103013572e-08,7.353607944793338902e-09,4.989256381988525391e+00,1.613757200539112091e-02,-1.988111436367034912e-02
5.300000000000000000e+01,5.199999809265136719e+00,0.000000000000000000e+00,1.227378820800595349e-08,7.597003914838751371e-09,4.990830898284912109e+00,1.617760956287384033e-02,-1.983653195202350616e-02
5.400000000000000000e+01,5.300000190734863281e+00,0.000000000000000000e+00,1.251128445289850788e-08,7.845160077124546660e-09,4.992265224456787109e+00,1.621381565928459167e-02,-1.979387551546096802e-02
5.500000000000000000e+01,5.400000095367431641e+00,0.000000000000000000e+00,1.274884109392360187e-08,8.098077763918354322e-09,4.993569850921630859e+00,1.624656468629837036e-02,-1.975298486649990082e-02
5.600000000000000000e+01,5.500000000000000000e+00,0.000000000000000000e+00,1.298645457836755668e-08,8.355761416112272855e-09,4.994753837585449219e+00,1.627606526017189026e-02,-1.971412077546119690e-02
5.700000000000000000e+01,5.599999904632568359e+00,0.000000000000000000e+00,1.322411780080301469e-08,8.618211921884721960e-09,4.995825767517089844e+00,1.630260795354843140e-02,-1.967721991240978241e-02
5.800000000000000000e+01,5.699999809265136719e+00,0.000000000000000000e+00,1.346182632033787741e-08,8.885431057592541038e-09,4.996794700622558594e+00,1.632643677294254303e-02,-1.964227668941020966e-02
5.900000000000000000e+01,5.800000190734863281e+00,0.000000000000000000e+00,1.369957836061530543e-08,9.157421487770989188e-09,4.997668743133544922e+00,1.634774915874004364e-02,-1.960933208465576172e-02
6.000000000000000000e+01,5.900000095367431641e+00,0.000000000000000000e+00,1.393736592802952146e-08,9.434182324241646711e-09,4.998455047607421875e+00,1.636683382093906403e-02,-1.957814022898674011e-02
6.100000000000000000e+01,6.000000000000000000e+00,0.000000000000000000e+00,1.417518724622368609e-08,9.715715343361353007e-09,4.999160766601562500e+00,1.638381555676460266e-02,-1.954888738691806793e-02
6.200000000000000000e+01,6.099999904632568359e+00,0.000000000000000000e+00,1.441303787430570083e-08,1.000202054513010808e-08,4.999793052673339844e+00,1.639890484511852264e-02,-1.952145062386989594e-02
6.300000000000000000e+01,6.199999809265136719e+00,0.000000000000000000e+00,1.465091514774030657e-08,1.029309881772633162e-08,5.000357151031494141e+00,1.641227491199970245e-02,-1.949577406048774719e-02
6.400000000000000000e+01,6.300000190734863281e+00,0.000000000000000000e+00,1.488881817834908361e-08,1.058895193750686303e-08,5.000860214233398438e+00,1.642405055463314056e-02,-1.947185210883617401e-02
6.500000000000000000e+01,6.400000095367431641e+00,0.000000000000000000e+00,1.512674074888309406e-08,1.088957723993644322e-08,5.001306533813476562e+00,1.643445156514644623e-02,-1.944940909743309021e-02
6.600000000000000000e+01,6.500000000000000000e+00,0.000000000000000000e+00,1.536468197116391821e-08,1.119497472501507218e-08,5.001701354980468750e+00,1.644354499876499176e-02,-1.942860335111618042e-02
6.700000000000000000e+01,6.599999904632568359e+00,0.000000000000000000e+00,1.560263918065629696e-08,1.150514616909958932e-08,5.002049922943115234e+00,1.645147800445556641e-02,-1.940928958356380463e-02
6.800000000000000000e+01,6.699999809265136719e+00,0.000000000000000000e+00,1.584061060100339091e-08,1.182008979583315522e-08,5.002356052398681641e+00,1.645836979150772095e-02,-1.939139701426029205e-02
6.900000000000000000e+01,6.800000190734863281e+00,0.000000000000000000e+00,1.607859623220520007e-08,1.213980649339418960e-08,5.002623558044433594e+00,1.646429114043712616e-02,-1.937491260468959808e-02
7.000000000000000000e+01,6.900000095367431641e+00,0.000000000000000000e+00,1.631659252154804562e-08,1.246429448542585305e-08,5.002856731414794922e+00,1.646941527724266052e-02,-1.935955323278903961e-02
7.100000000000000000e+01,7.000000000000000000e+00,0.000000000000000000e+00,1.655459769267508818e-08,1.279355377192814558e-08,5.003058910369873047e+00,1.647376082837581635e-02,-1.934547163546085358e-02
7.200000000000000000e+01,7.099999904632568359e+00,0.000000000000000000e+00,1.679261174558632774e-08,1.312758346472264748e-08,5.003232955932617188e+00,1.647743210196495056e-02,-1.933252811431884766e-02
7.300000000000000000e+01,7.199999809265136719e+00,0.000000000000000000e+00,1.703063290392492490e-08,1.346638445198777845e-08,5.003381729125976562e+00,1.648050732910633087e-02,-1.932065188884735107e-02
7.400000000000000000e+01,7.300000190734863281e+00,0.000000000000000000e+00,1.726865939133404027e-08,1.380995673372353849e-08,5.003508567810058594e+00,1.648302190005779266e-02,-1.930983737111091614e-02
7.500000000000000000e+01,7.400000095367431641e+00,0.000000000000000000e+00,1.750669120781367383e-08,1.415829675721624881e-08,5.003614902496337891e+00,1.648511178791522980e-02,-1.929980702698230743e-02
7.600000000000000000e+01,7.500000000000000000e+00,0.000000000000000000e+00,1.774472657700698619e-08,1.451140541064432909e-08,5.003703594207763672e+00,1.648676209151744843e-02,-1.929072476923465729e-02
7.700000000000000000e+01,7.599999904632568359e+00,0.000000000000000000e+00,1.798276727527081675e-08,1.486928269400777936e-08,5.003776550292968750e+00,1.648804917931556702e-02,-1.928245835006237030e-02
7.800000000000000000e+01,7.699999809265136719e+00,0.000000000000000000e+00,1.822080797353464732e-08,1.523192771912817989e-08,5.003835201263427734e+00,1.648902148008346558e-02,-1.927495375275611877e-02
7.900000000000000000e+01,7.800000190734863281e+00,0.000000000000000000e+00,1.845885400086899608e-08,1.559934226236237009e-08,5.003881931304931641e+00,1.648968830704689026e-02,-1.926820911467075348e-02
8.000000000000000000e+01,7.900000095367431641e+00,0.000000000000000000e+00,1.869690002820334485e-08,1.597152099463983177e-08,5.003917694091796875e+00,1.649015955626964569e-02,-1.926196739077568054e-02
8.100000000000000000e+01,8.000000000000000000e+00,0.000000000000000000e+00,1.893494783189453301e-08,1.634846569231740432e-08,5.003943920135498047e+00,1.649040542542934418e-02,-1.925640553236007690e-02
8.200000000000000000e+01,8.100000381469726562e+00,0.000000000000000000e+00,1.917299741194256057e-08,1.673017990810876654e-08,5.003962516784667969e+00,1.649044081568717957e-02,-1.925145834684371948e-02
8.300000000000000000e+01,8.199999809265136719e+00,0.000000000000000000e+00,1.941104343927690934e-08,1.711665476022972143e-08,5.003973484039306641e+00,1.649040915071964264e-02,-1.924681104719638824e-02
8.400000000000000000e+01,8.300000190734863281e+00,0.000000000000000000e+00,1.964909479568177630e-08,1.750789735410762660e-08,5.003978729248046875e+00,1.649014279246330261e-02,-1.924291998147964478e-02
8.500000000000000000e+01,8.399999618530273438e+00,0.000000000000000000e+00,1.988714259937296447e-08,1.790390236067196383e-08,5.003978729248046875e+00,1.648988388478755951e-02,-1.923917233943939209e-02
8.600000000000000000e+01,8.500000000000000000e+00,0.000000000000000000e+00,2.012519217942099203e-08,1.830467333263641194e-08,5.003974437713623047e+00,1.648943871259689331e-02,-1.923611201345920563e-02
8.700000000000000000e+01,8.600000381469726562e+00,0.000000000000000000e+00,2.036324175946901960e-08,1.871021027000097092e-08,5.003966331481933594e+00,1.648896373808383942e-02,-1.923324167728424072e-02
8.800000000000000000e+01,8.699999809265136719e+00,0.000000000000000000e+00,2.060128778680336836e-08,1.912050429098144377e-08,5.003955364227294922e+00,1.648848876357078552e-02,-1.923056878149509430e-02
8.900000000000000000e+01,8.800000190734863281e+00,0.000000000000000000e+00,2.083933559049455653e-08,1.953556605371886690e-08,5.003942012786865234e+00,1.648786477744579315e-02,-1.922848261892795563e-02
9.000000000000000000e+01,8.899999618530273438e+00,0.000000000000000000e+00,2.107738161782890529e-08,1.995538845278588269e-08,5.003926753997802734e+00,1.648732274770736694e-02,-1.922637969255447388e-02
9.100000000000000000e+01,9.000000000000000000e+00,0.000000000000000000e+00,2.131542764516325406e-08,2.037997504089616996e-08,5.003909587860107422e+00,1.648665964603424072e-02,-1.922481693327426910e-02
9.200000000000000000e+01,9.100000381469726562e+00,0.000000000000000000e+00,2.155347367249760282e-08,2.080932404169288930e-08,5.003891468048095703e+00,1.648602448403835297e-02,-1.922330632805824280e-02
9.300000000000000000e+01,9.199999809265136719e+00,0.000000000000000000e+00,2.179151792347511218e-08,2.124343190246236190e-08,5.003872871398925781e+00,1.648543961346149445e-02,-1.922186464071273804e-02
9.400000000000000000e+01,9.300000190734863281e+00,0.000000000000000000e+00,2.202956217445262155e-08,2.168230395227510598e-08,5.003852844238281250e+00,1.648474857211112976e-02,-1.922089233994483948e-02
9.500000000000000000e+01,9.399999618530273438e+00,0.000000000000000000e+00,2.226760287271645211e-08,2.212593486206060334e-08,5.003833293914794922e+00,1.648417301476001740e-02,-1.921979524195194244e-02
9.600000000000000000e+01,9.500000000000000000e+00,0.000000000000000000e+00,2.250564534733712208e-08,2.257432996088937216e-08,5.003813743591308594e+00,1.648350991308689117e-02,-1.921913586556911469e-02
9.700000000000000000e+01,9.600000381469726562e+00,0.000000000000000000e+00,2.274368604560095264e-08,2.302748747240457305e-08,5.003793716430664062e+00,1.648290082812309265e-02,-1.921843737363815308e-02
9.800000000000000000e+01,9.699999809265136719e+00,0.000000000000000000e+00,2.298172319115110440e-08,2.348540029117884842e-08,5.003774642944335938e+00,1.648236252367496490e-02,-1.921772398054599762e-02
9.900000000000000000e+01,9.800000190734863281e+00,0.000000000000000000e+00,2.321976388941493497e-08,2.394807729899639526e-08,5.003755092620849609e+00,1.648173853754997253e-02,-1.921739988029003143e-02
1.000000000000000000e+02,9.899999618530273438e+00,0.000000000000000000e+00,2.345779925860824733e-08,2.441551139042985596e-08,5.003736972808837891e+00,1.648124493658542633e-02,-1.921688020229339600e-02
1.010000000000000000e+02,1.000000000000000000e+01,0.000000000000000000e+00,2.369583818051523849e-08,2.488770967090658814e-08,5.003718376159667969e+00,1.648067496716976166e-02,-1.921673305332660675e-02
1.020000000000000000e+02,1.010000038146972656e+01,0.000000000000000000e+00,2.393387532606539025e-08,2.536466858771291299e-08,5.003701210021972656e+00,1.648016646504402161e-02,-1.921649090945720673e-02
1.030000000000000000e+02,1.019999980926513672e+01,0.000000000000000000e+00,2.417190891890186322e-08,2.584638281177831232e-08,5.003684520721435547e+00,1.647973991930484772e-02,-1.921616680920124054e-02
1.040000000000000000e+02,1.030000019073486328e+01,0.000000000000000000e+00,2.440994428809517558e-08,2.633286300124382251e-08,5.003668308258056641e+00,1.647922769188880920e-02,-1.921620219945907593e-02
1.050000000000000000e+02,1.039999961853027344e+01,0.000000000000000000e+00,2.464797610457480914e-08,2.682409672161156777e-08,5.003653049468994141e+00,1.647885516285896301e-02,-1.921598054468631744e-02
1.060000000000000000e+02,1.050000000000000000e+01,0.000000000000000000e+00,2.488600969741128210e-08,2.732009463102258451e-08,5.003638267517089844e+00,1.647840067744255066e-02,-1.921610906720161438e-02
1.070000000000000000e+02,1.060000038146972656e+01,0.000000000000000000e+00,2.512404329024775507e-08,2.782085317676319391e-08,5.003624439239501953e+00,1.647801324725151062e-02,-1.921609230339527130e-02
1.080000000000000000e+02,1.069999980926513672e+01,0.000000000000000000e+00,2.536207333037054923e-08,2.832636702976287779e-08,5.003611564636230469e+00,1.647770777344703674e-02,-1.921596750617027283e-02
1.090000000000000000e+02,1.080000019073486328e+01,0.000000000000000000e+00,2.560010692320702219e-08,2.883664507180583314e-08,5.003599166870117188e+00,1.647731103003025055e-02,-1.921617053449153900e-02
1.100000000000000000e+02,1.089999961853027344e+01,0.000000000000000000e+00,2.583813518697297695e-08,2.935167664475102356e-08,5.003587722778320312e+00,1.647705584764480591e-02,-1.921609230339527130e-02
1.110000000000000000e+02,1.100000000000000000e+01,0.000000000000000000e+00,2.607616700345261052e-08,2.987147240673948545e-08,5.003576755523681641e+00,1.647671498358249664e-02,-1.921634003520011902e-02
1.120000000000000000e+02,1.110000038146972656e+01,0.000000000000000000e+00,2.631419704357540468e-08,3.039602702870070061e-08,5.003566265106201172e+00,1.647643558681011200e-02,-1.921642385423183441e-02
1.130000000000000000e+02,1.119999980926513672e+01,0.000000000000000000e+00,2.655222530734135944e-08,3.092533873427782964e-08,5.003557205200195312e+00,1.647623628377914429e-02,-1.921637915074825287e-02
1.140000000000000000e+02,1.130000019073486328e+01,0.000000000000000000e+00,2.679025534746415360e-08,3.145941462889823015e-08,5.003548145294189453e+00,1.647594198584556580e-02,-1.921664923429489136e-02
1.150000000000000000e+02,1.139999961853027344e+01,0.000000000000000000e+00,2.702828183487326896e-08,3.199824050170718692e-08,5.003540039062500000e+00,1.647578366100788116e-02,-1.921662129461765289e-02
1.160000000000000000e+02,1.150000000000000000e+01,0.000000000000000000e+00,2.726631187499606312e-08,3.254183411627309397e-08,5.003532409667968750e+00,1.647553592920303345e-02,-1.921690814197063446e-02
1.170000000000000000e+02,1.160000038146972656e+01,0.000000000000000000e+00,2.750434013876201789e-08,3.309018836716859369e-08,5.003525257110595703e+00,1.647534593939781189e-02,-1.921701990067958832e-02
1.180000000000000000e+02,1.169999980926513672e+01,0.000000000000000000e+00,2.774236484981429385e-08,3.364329259625264967e-08,5.003519058227539062e+00,1.647522859275341034e-02,-1.921699382364749908e-02
1.190000000000000000e+02,1.180000019073486328e+01,0.000000000000000000e+00,2.798039311358024861e-08,3.420116456709365593e-08,5.003512859344482422e+00,1.647501438856124878e-02,-1.921727322041988373e-02
1.200000000000000000e+02,1.189999961853027344e+01,0.000000000000000000e+00,2.821841960098936397e-08,3.476378651612321846e-08,5.003507137298583984e+00,1.647493056952953339e-02,-1.921725086867809296e-02
1.210000000000000000e+02,1.200000000000000000e+01,0.000000000000000000e+00,2.845644608839847933e-08,3.533117620690973126e-08,5.003501892089843750e+00,1.647475361824035645e-02,-1.921753399074077606e-02
1.220000000000000000e+02,1.210000038146972656e+01,0.000000000000000000e+00,2.869447435216443409e-08,3.590332298131215794e-08,5.003497600555419922e+00,1.647462882101535797e-02,-1.921764016151428223e-02
1.230000000000000000e+02,1.219999980926513672e+01,0.000000000000000000e+00,2.893249906321671006e-08,3.648022683933049848e-08,5.003493309020996094e+00,1.647457480430603027e-02,-1.921760290861129761e-02
1.240000000000000000e+02,1.230000019073486328e+01,0.000000000000000000e+00,2.917052555062582542e-08,3.706189133367843169e-08,5.003489017486572266e+00,1.647441834211349487e-02,-1.921786926686763763e-02
1.250000000000000000e+02,1.239999961853027344e+01,0.000000000000000000e+00,2.940855026167810138e-08,3.764831291164227878e-08,5.003485679626464844e+00,1.647438667714595795e-02,-1.921782828867435455e-02
1.260000000000000000e+02,1.250000000000000000e+01,0.000000000000000000e+00,2.964657674908721674e-08,3.823949512593571853e-08,5.003482341766357422e+00,1.647426001727581024e-02,-1.921809464693069458e-02
1.270000000000000000e+02,1.260000038146972656e+01,0.000000000000000000e+00,2.988460323649633210e-08,3.883544152927242976e-08,5.003479480743408203e+00,1.647418178617954254e-02,-1.921817846596240997e-02
1.280000000000000000e+02,1.269999980926513672e+01,0.000000000000000000e+00,3.012262794754860806e-08,3.943613791079769726e-08,5.003477096557617188e+00,1.647417061030864716e-02,-1.921812072396278381e-02
1.290000000000000000e+02,1.280000019073486328e+01,0.000000000000000000e+00,3.036065265860088402e-08,4.004159848136623623e-08,5.003474712371826172e+00,1.647405326366424561e-02,-1.921836286783218384e-02
1.300000000000000000e+02,1.289999961853027344e+01,0.000000000000000000e+00,3.059867736965315999e-08,4.065181258283701027e-08,5.003472805023193359e+00,1.647405885159969330e-02,-1.921829953789710999e-02
1.310000000000000000e+02,1.300000000000000000e+01,0.000000000000000000e+00,3.083670563341911475e-08,4.126679087335105578e-08,5.003470420837402344e+00,1.647396571934223175e-02,-1.921854168176651001e-02
1.320000000000000000e+02,1.310000038146972656e+01,0.000000000000000000e+00,3.107473034447139071e-08,4.188652980019469396e-08,5.003468990325927734e+00,1.647391915321350098e-02,-1.921860314905643463e-02
1.330000000000000000e+02,1.319999980926513672e+01,0.000000000000000000e+00,3.131275505552366667e-08,4.251102225794056721e-08,5.003467559814453125e+00,1.647393591701984406e-02,-1.921852119266986847e-02
1.340000000000000000e+02,1.330000019073486328e+01,0.000000000000000000e+00,3.155077976657594263e-08,4.314027890472971194e-08,5.003466129302978516e+00,1.647384464740753174e-02,-1.921874098479747772e-02
1.350000000000000000e+02,1.339999961853027344e+01,0.000000000000000000e+00,3.178880447762821859e-08,4.377428908242109173e-08,5.003465175628662109e+00,1.647387444972991943e-02,-1.921865530312061310e-02
1.360000000000000000e+02,1.350000000000000000e+01,0.000000000000000000e+00,3.202682918868049455e-08,4.441306344915574300e-08,5.003463745117187500e+00,1.647380180656909943e-02,-1.921887695789337158e-02
1.370000000000000000e+02,1.360000038146972656e+01,0.000000000000000000e+00,3.226485389973277051e-08,4.505659845221998694e-08,5.003462791442871094e+00,1.647377572953701019e-02,-1.921891793608665466e-02
1.380000000000000000e+02,1.369999980926513672e+01,0.000000000000000000e+00,3.250287861078504648e-08,4.570488698618646595e-08,5.003462314605712891e+00,1.647381111979484558e-02,-1.921881735324859619e-02
1.390000000000000000e+02,1.380000019073486328e+01,0.000000000000000000e+00,3.274090332183732244e-08,4.635793970919621643e-08,5.003461360931396484e+00,1.647373661398887634e-02,-1.921902038156986237e-02
1.400000000000000000e+02,1.389999961853027344e+01,0.000000000000000000e+00,3.297892803288959840e-08,4.701574241039452318e-08,5.003460884094238281e+00,1.647378131747245789e-02,-1.921891607344150543e-02
1.410000000000000000e+02,1.400000000000000000e+01,0.000000000000000000e+00,3.321695274394187436e-08,4.767831285334978020e-08,5.003460407257080078e+00,1.647372357547283173e-02,-1.921912096440792084e-02
1.420000000000000000e+02,1.410000038146972656e+01,0.000000000000000000e+00,3.345497745499415032e-08,4.834564393263462989e-08,5.003459930419921875e+00,1.647371053695678711e-02,-1.921914704144001007e-02
1.430000000000000000e+02,1.419999980926513672e+01,0.000000000000000000e+00,3.369300216604642628e-08,4.901772499010803585e-08,5.003459453582763672e+00,1.647375524044036865e-02,-1.921903342008590698e-02
1.440000000000000000e+02,1.430000019073486328e+01,0.000000000000000000e+00,3.393102687709870224e-08,4.969457378933839209e-08,5.003458976745605469e+00,1.647369191050529480e-02,-1.921922154724597931e-02
1.450000000000000000e+02,1.439999961853027344e+01,0.000000000000000000e+00,3.416905158815097820e-08,5.037617256675730459e-08,5.003458976745605469e+00,1.647374778985977173e-02,-1.921910606324672699e-02
1.460000000000000000e+02,1.450000000000000000e+01,0.000000000000000000e+00,3.440707629920325417e-08,5.106253908593316737e-08,5.003458976745605469e+00,1.647369936108589172e-02,-1.921929977834224701e-02
1.470000000000000000e+02,1.460000038146972656e+01,0.000000000000000000e+00,3.464510101025553013e-08,5.175366268872494402e-08,5.003458976745605469e+00,1.647369377315044403e-02,-1.921931467950344086e-02
1.480000000000000000e+02,1.469999980926513672e+01,0.000000000000000000e+00,3.488312572130780609e-08,5.244953982241895574e-08,5.003458976745605469e+00,1.647374965250492096e-02,-1.921918988227844238e-02
1.490000000000000000e+02,1.480000019073486328e+01,0.000000000000000000e+00,3.512115043236008205e-08,5.315018114515623893e-08,5.003458499908447266e+00,1.647369377315044403e-02,-1.921936869621276855e-02
1.500000000000000000e+02,1.489999961853027344e+01,0.000000000000000000e+00,3.535917159069867921e-08,5.385557599879575719e-08,5.003458976745605469e+00,1.647375896573066711e-02,-1.921924389898777008e-02
1.510000000000000000e+02,1.500000000000000000e+01,0.000000000000000000e+00,3.559719985446463397e-08,5.456573859419222572e-08,5.003458499908447266e+00,1.647371798753738403e-02,-1.921942830085754395e-02
1.520000000000000000e+02,1.510000038146972656e+01,0.000000000000000000e+00,3.583522456551690993e-08,5.528065827320460812e-08,5.003458499908447266e+00,1.647372171282768250e-02,-1.921943388879299164e-02
1.530000000000000000e+02,1.519999980926513672e+01,0.000000000000000000e+00,3.607324572385550709e-08,5.600033148311922560e-08,5.003458976745605469e+00,1.647378690540790558e-02,-1.921929791569709778e-02
1.540000000000000000e+02,1.530000019073486328e+01,0.000000000000000000e+00,3.631127398762146186e-08,5.672476888207711454e-08,5.003458976745605469e+00,1.647374220192432404e-02,-1.921946741640567780e-02
1.550000000000000000e+02,1.539999961853027344e+01,0.000000000000000000e+00,3.654929514596005902e-08,5.745395981193723856e-08,5.003458976745605469e+00,1.647381670773029327e-02,-1.921933144330978394e-02
1.560000000000000000e+02,1.550000000000000000e+01,0.000000000000000000e+00,3.678732340972601378e-08,5.818791848355431284e-08,5.003458976745605469e+00,1.647378876805305481e-02,-1.921950094401836395e-02
1.570000000000000000e+02,1.560000038146972656e+01,0.000000000000000000e+00,3.702534812077828974e-08,5.892663423878730100e-08,5.003458976745605469e+00,1.647380553185939789e-02,-1.921949163079261780e-02
1.580000000000000000e+02,1.569999980926513672e+01,0.000000000000000000e+00,3.726336927911688690e-08,5.967009997220884543e-08,5.003458976745605469e+00,1.647388376295566559e-02,-1.921933703124523163e-02
1.590000000000000000e+02,1.580000019073486328e+01,0.000000000000000000e+00,3.750139754288284166e-08,6.041833700010101893e-08,5.003458499908447266e+00,1.647385582327842712e-02,-1.921948231756687164e-02
1.600000000000000000e+02,1.589999961853027344e+01,0.000000000000000000e+00,3.773941870122143882e-08,6.117132045346806990e-08,5.003458499908447266e+00,1.647395081818103790e-02,-1.921931840479373932e-02
1.610000000000000000e+02,1.600000000000000000e+01,0.000000000000000000e+00,3.797744341227371478e-08,6.192907164859207114e-08,5.003458023071289062e+00,1.647394336760044098e-02,-1.921945437788963318e-02
1.620000000000000000e+02,1.610000038146972656e+01,0.000000000000000000e+00,3.821547167603966955e-08,6.269158348004566506e-08,5.003457546234130859e+00,1.647399179637432098e-02,-1.921940594911575317e-02
1.630000000000000000e+02,1.620000076293945312e+01,0.000000000000000000e+00,3.845349638709194551e-08,6.345885594782885164e-08,5.003457069396972656e+00,1.647402346134185791e-02,-1.921932399272918701e-02
1.640000000000000000e+02,1.629999923706054688e+01,0.000000000000000000e+00,3.869151754543054267e-08,6.423086773565955809e-08,5.003456592559814453e+00,1.647418923676013947e-02,-1.921895332634449005e-02
1.650000000000000000e+02,1.639999961853027344e+01,0.000000000000000000e+00,3.892954225648281863e-08,6.500766147610193002e-08,5.003455162048339844e+00,1.647416129708290100e-02,-1.921918988227844238e-02
1.660000000000000000e+02,1.650000000000000000e+01,0.000000000000000000e+00,3.916756696753509459e-08,6.578920874744653702e-08,5.003453731536865234e+00,1.647424884140491486e-02,-1.921905949711799622e-02
1.670000000000000000e+02,1.660000038146972656e+01,0.000000000000000000e+00,3.940559167858737055e-08,6.657551665512073669e-08,5.003451824188232422e+00,1.647433638572692871e-02,-1.921888813376426697e-02
1.680000000000000000e+02,1.670000076293945312e+01,0.000000000000000000e+00,3.964361638963964651e-08,6.736658519912452903e-08,5.003449440002441406e+00,1.647441275417804718e-02,-1.921865716576576233e-02
1.690000000000000000e+02,1.679999923706054688e+01,0.000000000000000000e+00,3.988163754797824367e-08,6.816239306317584123e-08,5.003447055816650391e+00,1.647462882101535797e-02,-1.921810768544673920e-02
1.700000000000000000e+02,1.689999961853027344e+01,0.000000000000000000e+00,4.011966225903051964e-08,6.896297577441146132e-08,5.003442764282226562e+00,1.647465676069259644e-02,-1.921812444925308228e-02
1.710000000000000000e+02,1.700000000000000000e+01,0.000000000000000000e+00,4.035768697008279560e-08,6.976831912197667407e-08,5.003438472747802734e+00,1.647480577230453491e-02,-1.921773143112659454e-02
1.720000000000000000e+02,1.710000038146972656e+01,0.000000000000000000e+00,4.059571168113507156e-08,7.057842310587147949e-08,5.003432750701904297e+00,1.647496037185192108e-02,-1.921724341809749603e-02
1.730000000000000000e+02,1.720000076293945312e+01,0.000000000000000000e+00,4.083373639218734752e-08,7.139328772609587759e-08,5.003426074981689453e+00,1.647510752081871033e-02,-1.921663247048854828e-02
1.740000000000000000e+02,1.729999923706054688e+01,0.000000000000000000e+00,4.107175399781226588e-08,7.221289166636779555e-08,5.003417968750000000e+00,1.647539995610713959e-02,-1.921562477946281433e-02
1.750000000000000000e+02,1.739999961853027344e+01,0.000000000000000000e+00,4.130977870886454184e-08,7.303727755925137899e-08,5.003407478332519531e+00,1.647550985217094421e-02,-1.921509206295013428e-02
1.760000000000000000e+02,1.750000000000000000e+01,0.000000000000000000e+00,4.154779986720313900e-08,7.386641698303719750e-08,5.003395557403564453e+00,1.647574268281459808e-02,-1.921404153108596802e-02
1.770000000000000000e+02,1.760000038146972656e+01,0.000000000000000000e+00,4.178582102554173616e-08,7.470031704315260868e-08,5.003380775451660156e+00,1.647598482668399811e-02,-1.921276375651359558e-02
1.780000000000000000e+02,1.770000076293945312e+01,0.000000000000000000e+00,4.202384218388033332e-08,7.553897773959761253e-08,5.003363609313964844e+00,1.647622138261795044e-02,-1.921120285987854004e-02
1.790000000000000000e+02,1.779999923706054688e+01,0.000000000000000000e+00,4.226185623679157288e-08,7.638238486151749385e-08,5.003342628479003906e+00,1.647660136222839355e-02,-1.920905709266662598e-02
1.800000000000000000e+02,1.789999961853027344e+01,0.000000000000000000e+00,4.249987739513017004e-08,7.723055972519432544e-08,5.003317356109619141e+00,1.647679135203361511e-02,-1.920715346932411194e-02
1.810000000000000000e+02,1.800000000000000000e+01,0.000000000000000000e+00,4.273789500075508840e-08,7.808349522520074970e-08,5.003287315368652344e+00,1.647709682583808899e-02,-1.920444890856742859e-02
1.820000000000000000e+02,1.810000038146972656e+01,0.000000000000000000e+00,4.297590905366632796e-08,7.894119846696412424e-08,5.003251552581787109e+00,1.647738926112651825e-02,-1.920116692781448364e-02
1.830000000000000000e+02,1.820000076293945312e+01,0.000000000000000000e+00,4.321392310657756752e-08,7.980364813420237624e-08,5.003208160400390625e+00,1.647764816880226135e-02,-1.919716782867908478e-02
1.840000000000000000e+02,1.829999923706054688e+01,0.000000000000000000e+00,4.345193005406144948e-08,8.067085133234286332e-08,5.003157615661621094e+00,1.647800393402576447e-02,-1.919203810393810272e-02
1.850000000000000000e+02,1.839999961853027344e+01,0.000000000000000000e+00,4.368993700154533144e-08,8.154282227224030066e-08,5.003095626831054688e+00,1.647810265421867371e-02,-1.918645761907100677e-02
1.860000000000000000e+02,1.850000000000000000e+01,0.000000000000000000e+00,4.392794394902921340e-08,8.241955384846733068e-08,5.003022193908691406e+00,1.647821068763732910e-02,-1.917917840182781219e-02
1.870000000000000000e+02,1.860000038146972656e+01,0.000000000000000000e+00,4.416594379108573776e-08,8.330104606102395337e-08,5.002933502197265625e+00,1.647815667092800140e-02,-1.917015016078948975e-02
1.880000000000000000e+02,1.870000076293945312e+01,0.000000000000000000e+00,4.440393652771490451e-08,8.418729890991016873e-08,5.002826690673828125e+00,1.647783443331718445e-02,-1.915884017944335938e-02
1.890000000000000000e+02,1.879999923706054688e+01,0.000000000000000000e+00,4.464192215891671367e-08,8.507828397341654636e-08,5.002697944641113281e+00,1.647725142538547516e-02,-1.914426498115062714e-02
1.900000000000000000e+02,1.889999961853027344e+01,0.000000000000000000e+00,4.487990423740484403e-08,8.597405098953458946e-08,5.002539157867431641e+00,1.647585257887840271e-02,-1.912626251578330994e-02
1.910000000000000000e+02,1.900000000000000000e+01,0.000000000000000000e+00,4.511787565775193798e-08,8.687456443112751003e-08,5.002344131469726562e+00,1.647356152534484863e-02,-1.910229586064815521e-02
1.920000000000000000e+02,1.910000038146972656e+01,0.000000000000000000e+00,4.535583641995799553e-08,8.777983850905002328e-08,5.002100944519042969e+00,1.646959409117698669e-02,-1.907026022672653198e-02
1.930000000000000000e+02,1.920000076293945312e+01,0.000000000000000000e+00,4.559378297130933788e-08,8.868986611787477159e-08,5.001792907714843750e+00,1.646272838115692139e-02,-1.902621798217296600e-02
1.940000000000000000e+02,1.929999923706054688e+01,0.000000000000000000e+00,4.583170820637860743e-08,8.960462594131968217e-08,5.001394271850585938e+00,1.645075716078281403e-02,-1.896325498819351196e-02
1.950000000000000000e+02,1.939999961853027344e+01,0.000000000000000000e+00,4.606960857245212537e-08,9.052415350652154302e-08,5.000863552093505859e+00,1.642843335866928101e-02,-1.887015998363494873e-02
1.960000000000000000e+02,1.950000000000000000e+01,0.000000000000000000e+00,4.630747696410253411e-08,9.144841328634356614e-08,5.000129699707031250e+00,1.638463139533996582e-02,-1.872205175459384918e-02
1.970000000000000000e+02,1.960000038146972656e+01,0.000000000000000000e+00,4.654529561776143964e-08,9.237740528078575153e-08,4.999055385589599609e+00,1.629008352756500244e-02,-1.846670173108577728e-02
1.980000000000000000e+02,1.970000076293945312e+01,0.000000000000000000e+00,4.678303611171941156e-08,9.331111527899338398e-08,4.997337341308593750e+00,1.605238020420074463e-02,-1.796956919133663177e-02
1.990000000000000000e+02,1.979999923706054688e+01,0.000000000000000000e+00,4.702063094441655267e-08,9.424947222669288749e-08,4.994220733642578125e+00,1.542620360851287842e-02,-1.685888320207595825e-02
2.000000000000000000e+02,1.989999961853027344e+01,0.000000000000000000e+00,4.725794156001938973e-08,9.519238375332861324e-08,4.987475872039794922e+00,1.328695472329854965e-02,-1.391700748354196548e-02
2.010000000000000000e+02,2.000000000000000000e+01,0.000000000000000000e+00,4.749467308329258231e-08,9.613901852389972191e-08,4.976800918579101562e+00,1.816628873348236084e-02,-1.116653345525264740e-02
2.020000000000000000e+02,0.000000000000000000e+00,1.000000014901161194e-01,3.349378432650829048e-37,1.257144425014425927e-37,5.942944526672363281e+00,1.782883286476135254e+00,1.317019462585449219e+00
2.030000000000000000e+02,1.000000014901161194e-01,1.000000014901161194e-01,2.575275825922318518e-10,1.630595519719335584e-10,5.365463733673095703e+00,-1.420528292655944824e-01,4.289634525775909424e-01
2.040000000000000000e+02,2.000000029802322388e-01,1.000000014901161194e-01,5.341214692755613669e-10,3.267235926251998990e-10,5.866726875305175781e+00,1.941850781440734863e-01,4.022190570831298828e-01
2.050000000000000000e+02,3.000000119209289551e-01,1.000000014901161194e-01,7.938760759884644358e-10,4.585933299772193550e-10,5.487094402313232422e+00,1.074929088354110718e-01,2.112743407487869263e-01
2.060000000000000000e+02,4.000000059604644775e-01,1.000000014901161194e-01,1.041159936043811740e-09,5.731332630709573550e-10,5.215004920959472656e+00,7.347687333822250366e-02,1.325365602970123291e-01
2.070000000000000000e+02,5.000000000000000000e-01,1.000000014901161194e-01,1.280196282316126144e-09,6.758538728668384010e-10,5.034066677093505859e+00,4.767921566963195801e-02,8.379037678241729736e-02
2.080000000000000000e+02,6.000000238418579102e-01,1.000000014901161194e-01,1.513825953480818498e-09,7.708161331443363906e-10,4.915760993957519531e+00,3.179562836885452271e-02,5.437034741044044495e-02
2.090000000000000000e+02,6.999999880790710449e-01,1.000000014901161194e-01,1.743850175373040656e-09,8.605972601216649309e-10,4.836769580841064453e+00,2.086810022592544556e-02,3.482362255454063416e-02
2.100000000000000000e+02,8.000000119209289551e-01,1.000000014901161194e-01,1.971450558357901173e-09,9.470344508599737310e-10,4.783540725708007812e+00,1.311105117201805115e-02,2.128485403954982758e-02
2.110000000000000000e+02,8.999999761581420898e-01,1.000000014901161194e-01,2.197428683459179410e-09,1.031484342384203501e-09,4.747754096984863281e+00,7.372321560978889465e-03,1.152850221842527390e-02
2.120000000000000000e+02,1.000000000000000000e+00,1.000000014901161194e-01,2.422344991259706148e-09,1.114991099449014200e-09,4.724140167236328125e+00,3.003490157425403595e-03,4.297281149774789810e-03
2.130000000000000000e+02,1.100000023841857910e+00,1.000000014901161194e-01,2.646599162048346443e-09,1.198380616962424483e-09,4.709216117858886719e+00,-4.026946844533085823e-04,-1.183844287879765034e-03
2.140000000000000000e+02,1.200000047683715820e+00,1.000000014901161194e-01,2.870481630168342235e-09,1.282321471229863619e-09,4.700600624084472656e+00,-3.109386423602700233e-03,-5.411612801253795624e-03
2.150000000000000000e+02,1.299999952316284180e+00,1.000000014901161194e-01,3.094205780485026480e-09,1.367364443893848147e-09,4.696619987487792969e+00,-5.294123198837041855e-03,-8.717897348105907440e-03
2.160000000000000000e+02,1.399999976158142090e+00,1.000000014901161194e-01,3.317929264667895950e-09,1.453970277509597508e-09,4.696068286895751953e+00,-7.080453447997570038e-03,-1.133162621408700943e-02
2.170000000000000000e+02,1.500000000000000000e+00,1.000000014901161194e-01,3.541768656134536286e-09,1.542528882403360058e-09,4.698060035705566406e+00,-8.556787855923175812e-03,-1.341509539633989334e-02
2.180000000000000000e+02,1.600000023841857910e+00,1.000000014901161194e-01,3.765809886147053476e-09,1.633373547527128267e-09,4.701932907104492188e+00,-9.787900373339653015e-03,-1.508614141494035721e-02
2.190000000000000000e+02,1.700000047683715820e+00,1.000000014901161194e-01,3.990116681507061003e-09,1.726791376555070201e-09,4.707187652587890625e+00,-1.082223746925592422e-02,-1.643206179141998291e-02
2.200000000000000000e+02,1.799999952316284180e+00,1.000000014901161194e-01,4.214733007046334023e-09,1.823031836600819133e-09,4.713440418243408203e+00,-1.169669721275568008e-02,-1.751868799328804016e-02
2.210000000000000000e+02,1.899999976158142090e+00,1.000000014901161194e-01,4.439691281277191592e-09,1.922312975466411444e-09,4.720395565032958984e+00,-1.243983022868633270e-02,-1.839650422334671021e-02
2.220000000000000000e+02,2.000000000000000000e+00,1.000000014901161194e-01,4.665012820481706513e-09,2.024826084578990049e-09,4.727822303771972656e+00,-1.307404600083827972e-02,-1.910466887056827545e-02
2.230000000000000000e+02,2.099999904632568359e+00,1.000000014901161194e-01,4.890709170979334885e-09,2.130739806815995507e-09,4.735541820526123047e+00,-1.361716166138648987e-02,-1.967402733862400055e-02
2.240000000000000000e+02,2.200000047683715820e+00,1.000000014901161194e-01,5.116787438197434312e-09,2.240203800241147292e-09,4.743411540985107422e+00,-1.408350560814142227e-02,-2.012917213141918182e-02
2.250000000000000000e+02,2.299999952316284180e+00,1.000000014901161194e-01,5.343247178046794943e-09,2.353350181394375795e-09,4.751321792602539062e+00,-1.448472775518894196e-02,-2.048973925411701202e-02
2.260000000000000000e+02,2.400000095367431641e+00,1.000000014901161194e-01,5.570087502348997077e-09,2.470297522094710985e-09,4.759184837341308594e+00,-1.483038160949945450e-02,-2.077185735106468201e-02
2.270000000000000000e+02,2.500000000000000000e+00,1.000000014901161194e-01,5.797299973409053564e-09,2.591150849440282400e-09,4.766932964324951172e+00,-1.512838434427976608e-02,-2.098850533366203308e-02
2.280000000000000000e+02,2.599999904632568359e+00,1.000000014901161194e-01,6.024877485799606802e-09,2.716004532388183179e-09,4.774512767791748047e+00,-1.538533810526132584e-02,-2.115058898925781250e-02
2.290000000000000000e+02,2.700000047683715820e+00,1.000000014901161194e-01,6.252809381379620390e-09,2.844943391977494684e-09,4.781884670257568359e+00,-1.560679730027914047e-02,-2.126707509160041809e-02
2.300000000000000000e+02,2.799999952316284180e+00,1.000000014901161194e-01,6.481083225651218527e-09,2.978042257240076651e-09,4.789017200469970703e+00,-1.579746790230274200e-02,-2.134536579251289368e-02
2.310000000000000000e+02,2.900000095367431641e+00,1.000000014901161194e-01,6.709687472294945110e-09,3.115369517914245989e-09,4.795888423919677734e+00,-1.596134901046752930e-02,-2.139188908040523529e-02
2.320000000000000000e+02,3.000000000000000000e+00,1.000000014901161194e-01,6.938607022277665237e-09,3.256985348087937382e-09,4.802481651306152344e+00,-1.610188372433185577e-02,-2.141183055937290192e-02
2.330000000000000000e+02,3.099999904632568359e+00,1.000000014901161194e-01,7.167828108833873557e-09,3.402945036867777162e-09,4.808786392211914062e+00,-1.622202433645725250e-02,-2.140980400145053864e-02
2.340000000000000000e+02,3.200000047683715820e+00,1.000000014901161194e-01,7.397337853376484418e-09,3.553297656111453762e-09,4.814796924591064453e+00,-1.632433384656906128e-02,-2.138964273035526276e-02
2.350000000000000000e+02,3.299999952316284180e+00,1.000000014901161194e-01,7.627120268693943217e-09,3.708086726561532487e-09,4.820510387420654297e+00,-1.641104370355606079e-02,-2.135451696813106537e-02
2.360000000000000000e+02,3.400000095367431641e+00,1.000000014901161194e-01,7.857162032109954453e-09,3.867352216246899843e-09,4.825927257537841797e+00,-1.648408733308315277e-02,-2.130736969411373138e-02
2.370000000000000000e+02,3.500000000000000000e+00,1.000000014901161194e-01,8.087448044591383223e-09,4.031129208215133986e-09,4.831049919128417969e+00,-1.654517650604248047e-02,-2.125045470893383026e-02
2.380000000000000000e+02,3.599999904632568359e+00,1.000000014901161194e-01,8.317964983461934025e-09,4.199449232800134268e-09,4.835883617401123047e+00,-1.659579947590827942e-02,-2.118594571948051453e-02
2.390000000000000000e+02,3.700000047683715820e+00,1.000000014901161194e-01,8.548700414223731059e-09,4.372341599889750796e-09,4.840434551239013672e+00,-1.663727685809135437e-02,-2.111559920012950897e-02
2.400000000000000000e+02,3.799999952316284180e+00,1.000000014901161194e-01,8.779638349665219721e-09,4.549830734390525322e-09,4.844710350036621094e+00,-1.667077094316482544e-02,-2.104081958532333374e-02
2.410000000000000000e+02,3.900000095367431641e+00,1.000000014901161194e-01,9.010769019823783310e-09,4.731940173030579899e-09,4.848719596862792969e+00,-1.669730246067047119e-02,-2.096304669976234436e-02
2.420000000000000000e+02,4.000000000000000000e+00,1.000000014901161194e-01,9.242077325666286924e-09,4.918689455735147931e-09,4.852471351623535156e+00,-1.671778969466686249e-02,-2.088324166834354401e-02
2.430000000000000000e+02,4.099999904632568359e+00,1.000000014901161194e-01,9.473553497230113862e-09,5.110096346072623419e-09,4.855976104736328125e+00,-1.673302985727787018e-02,-2.080246247351169586e-02
2.440000000000000000e+02,4.199999809265136719e+00,1.000000014901161194e-01,9.705185100017388322e-09,5.306177719432980666e-09,4.859243869781494141e+00,-1.674374006688594818e-02,-2.072146907448768616e-02
2.450000000000000000e+02,4.300000190734863281e+00,1.000000014901161194e-01,9.936962364065493603e-09,5.506947786670934875e-09,4.862284660339355469e+00,-1.675054989755153656e-02,-2.064099162817001343e-02
2.460000000000000000e+02,4.400000095367431641e+00,1.000000014901161194e-01,1.016887374305497360e-08,5.712418094105942146e-09,4.865109920501708984e+00,-1.675403118133544922e-02,-2.056138962507247925e-02
2.470000000000000000e+02,4.500000000000000000e+00,1.000000014901161194e-01,1.040090946702321162e-08,5.922599743968248731e-09,4.867730140686035156e+00,-1.675466448068618774e-02,-2.048335038125514984e-02
2.480000000000000000e+02,4.599999904632568359e+00,1.000000014901161194e-01,1.063306065418601065e-08,6.137502950309681182e-09,4.870155811309814453e+00,-1.675290241837501526e-02,-2.040718682110309601e-02
2.490000000000000000e+02,4.699999809265136719e+00,1.000000014901161194e-01,1.086531842275917370e-08,6.357136150825226650e-09,4.872397899627685547e+00,-1.674913056194782257e-02,-2.033321000635623932e-02
2.500000000000000000e+02,4.800000190734863281e+00,1.000000014901161194e-01,1.109767566731534316e-08,6.581507339120662436e-09,4.874466419219970703e+00,-1.674368791282176971e-02,-2.026172354817390442e-02
2.510000000000000000e+02,4.900000095367431641e+00,1.000000014901161194e-01,1.133012261789190234e-08,6.810620956088087041e-09,4.876371383666992188e+00,-1.673688925802707672e-02,-2.019271068274974823e-02
2.520000000000000000e+02,5.000000000000000000e+00,1.000000014901161194e-01,1.156265305723991332e-08,7.044484107154858066e-09,4.878122806549072266e+00,-1.672898605465888977e-02,-2.012653462588787079e-02
2.530000000000000000e+02,5.099999904632568359e+00,1.000000014901161194e-01,1.179525987993201852e-08,7.283101233213074011e-09,4.879730224609375000e+00,-1.672022044658660889e-02,-2.006322331726551056e-02
2.540000000000000000e+02,5.199999809265136719e+00,1.000000014901161194e-01,1.202793686871928003e-08,7.526476331065623526e-09,4.881202697753906250e+00,-1.671079546213150024e-02,-2.000283822417259216e-02
2.550000000000000000e+02,5.300000190734863281e+00,1.000000014901161194e-01,1.226067869453117964e-08,7.774613841604605113e-09,4.882549762725830078e+00,-1.670088618993759155e-02,-1.994546875357627869e-02
2.560000000000000000e+02,5.400000095367431641e+00,1.000000014901161194e-01,1.249347736376194007e-08,8.027514653008438472e-09,4.883779048919677734e+00,-1.669065654277801514e-02,-1.989091001451015472e-02
2.570000000000000000e+02,5.500000000000000000e+00,1.000000014901161194e-01,1.272633021187630220e-08,8.285182317990802403e-09,4.884899616241455078e+00,-1.668022386729717255e-02,-1.983936131000518799e-02
2.580000000000000000e+02,5.599999904632568359e+00,1.000000014901161194e-01,1.295923102162532814e-08,8.547618612908536306e-09,4.885918140411376953e+00,-1.666971109807491302e-02,-1.979071646928787231e-02
2.590000000000000000e+02,5.699999809265136719e+00,1.000000014901161194e-01,1.319217535211691938e-08,8.814825314118479582e-09,4.886842727661132812e+00,-1.665921695530414581e-02,-1.974491961300373077e-02
2.600000000000000000e+02,5.800000190734863281e+00,1.000000014901161194e-01,1.342516053881581684e-08,9.086805086155891331e-09,4.887680053710937500e+00,-1.664881780743598938e-02,-1.970195583999156952e-02
2.610000000000000000e+02,5.900000095367431641e+00,1.000000014901161194e-01,1.365818125265150229e-08,9.363555264485512453e-09,4.888436794281005859e+00,-1.663859374821186066e-02,-1.966153830289840698e-02
2.620000000000000000e+02,6.000000000000000000e+00,1.000000014901161194e-01,1.389123305273187725e-08,9.645078513642602047e-09,4.889119625091552734e+00,-1.662858761847019196e-02,-1.962380111217498779e-02
2.630000000000000000e+02,6.099999904632568359e+00,1.000000014901161194e-01,1.412431505087852202e-08,9.931375721805579815e-09,4.889733791351318359e+00,-1.661885529756546021e-02,-1.958857662975788116e-02
2.640000000000000000e+02,6.199999809265136719e+00,1.000000014901161194e-01,1.435742280619933808e-08,1.022244688897444576e-08,4.890285015106201172e+00,-1.660943031311035156e-02,-1.955576241016387939e-02
2.650000000000000000e+02,6.300000190734863281e+00,1.000000014901161194e-01,1.459055543051590575e-08,1.051829379150603927e-08,4.890778541564941406e+00,-1.660033874213695526e-02,-1.952531561255455017e-02
2.660000000000000000e+02,6.400000095367431641e+00,1.000000014901161194e-01,1.482370670657928713e-08,1.081891287668668156e-08,4.891219615936279297e+00,-1.659161783754825592e-02,-1.949691772460937500e-02
2.670000000000000000e+02,6.500000000000000000e+00,1.000000014901161194e-01,1.505687841074632161e-08,1.112430503269479232e-08,4.891612052917480469e+00,-1.658326387405395508e-02,-1.947068423032760620e-02
2.680000000000000000e+02,6.599999904632568359e+00,1.000000014901161194e-01,1.529006432576807128e-08,1.143447114770879125e-08,4.891960620880126953e+00,-1.657529734075069427e-02,-1.944643445312976837e-02
2.690000000000000000e+02,6.699999809265136719e+00,1.000000014901161194e-01,1.552326622800137557e-08,1.174941122172867836e-08,4.892268657684326172e+00,-1.656772382557392120e-02,-1.942406408488750458e-02
2.700000000000000000e+02,6.800000190734863281e+00,1.000000014901161194e-01,1.575648234108939505e-08,1.206912436657603394e-08,4.892540931701660156e+00,-1.656053774058818817e-02,-1.940352469682693481e-02
2.710000000000000000e+02,6.900000095367431641e+00,1.000000014901161194e-01,1.598970733596161153e-08,1.239360969407243829e-08,4.892779827117919922e+00,-1.655375398695468903e-02,-1.938450150191783905e-02
2.720000000000000000e+02,7.000000000000000000e+00,1.000000014901161194e-01,1.622294298897486442e-08,1.272286631603947171e-08,4.892988681793212891e+00,-1.654734835028648376e-02,-1.936711557209491730e-02
2.730000000000000000e+02,7.099999904632568359e+00,1.000000014901161194e-01,1.645618752377231431e-08,1.305689334429871451e-08,4.893170356750488281e+00,-1.654132455587387085e-02,-1.935119926929473877e-02
2.740000000000000000e+02,7.199999809265136719e+00,1.000000014901161194e-01,1.668943916399712180e-08,1.339569255520700608e-08,4.893328189849853516e+00,-1.653567329049110413e-02,-1.933665573596954346e-02
2.750000000000000000e+02,7.300000190734863281e+00,1.000000014901161194e-01,1.692269790964928688e-08,1.373926306058592672e-08,4.893463611602783203e+00,-1.653037592768669128e-02,-1.932345516979694366e-02
2.760000000000000000e+02,7.400000095367431641e+00,1.000000014901161194e-01,1.715596198437197017e-08,1.408760130772179764e-08,4.893579483032226562e+00,-1.652543805539608002e-02,-1.931129395961761475e-02
2.770000000000000000e+02,7.500000000000000000e+00,1.000000014901161194e-01,1.738922961180833227e-08,1.444070907297145823e-08,4.893678188323974609e+00,-1.652082614600658417e-02,-1.930031739175319672e-02
2.780000000000000000e+02,7.599999904632568359e+00,1.000000014901161194e-01,1.762250256831521256e-08,1.479858546815648879e-08,4.893761157989501953e+00,-1.651653833687305450e-02,-1.929036900401115417e-02
2.790000000000000000e+02,7.699999809265136719e+00,1.000000014901161194e-01,1.785577730117893225e-08,1.516122871692004992e-08,4.893829822540283203e+00,-1.651255786418914795e-02,-1.928137429058551788e-02
2.800000000000000000e+02,7.800000190734863281e+00,1.000000014901161194e-01,1.808905558675633074e-08,1.552864326015424012e-08,4.893886566162109375e+00,-1.650886796414852142e-02,-1.927332207560539246e-02
2.810000000000000000e+02,7.900000095367431641e+00,1.000000014901161194e-01,1.832233564869056863e-08,1.590082199243170180e-08,4.893932342529296875e+00,-1.650546491146087646e-02,-1.926592923700809479e-02
2.820000000000000000e+02,8.000000000000000000e+00,1.000000014901161194e-01,1.855561748698164592e-08,1.627776669010927435e-08,4.893968582153320312e+00,-1.650231517851352692e-02,-1.925936155021190643e-02
2.830000000000000000e+02,8.100000381469726562e+00,1.000000014901161194e-01,1.878890110162956262e-08,1.665947912954379717e-08,4.893996238708496094e+00,-1.649941504001617432e-02,-1.925354264676570892e-02
2.840000000000000000e+02,8.199999809265136719e+00,1.000000014901161194e-01,1.902218471627747931e-08,1.704595398166475206e-08,4.894016265869140625e+00,-1.649676077067852020e-02,-1.924813725054264069e-02
2.850000000000000000e+02,8.300000190734863281e+00,1.000000014901161194e-01,1.925547010728223540e-08,1.743719657554265723e-08,4.894030570983886719e+00,-1.649430766701698303e-02,-1.924359798431396484e-02
2.860000000000000000e+02,8.399999618530273438e+00,1.000000014901161194e-01,1.948875372193015210e-08,1.783320158210699446e-08,4.894039154052734375e+00,-1.649208366870880127e-02,-1.923929527401924133e-02
2.870000000000000000e+02,8.500000000000000000e+00,1.000000014901161194e-01,1.972203911293490819e-08,1.823397433042828197e-08,4.894042968750000000e+00,-1.649002917110919952e-02,-1.923576369881629944e-02
2.880000000000000000e+02,8.600000381469726562e+00,1.000000014901161194e-01,1.995532628029650368e-08,1.863950949143600155e-08,4.894042491912841797e+00,-1.648817025125026703e-02,-1.923250220715999603e-02
2.890000000000000000e+02,8.699999809265136719e+00,1.000000014901161194e-01,2.018860989494442038e-08,1.904980528877331380e-08,4.894039154052734375e+00,-1.648648269474506378e-02,-1.922949962317943573e-02
2.900000000000000000e+02,8.800000190734863281e+00,1.000000014901161194e-01,2.042189528594917647e-08,1.946486705151073693e-08,4.894032478332519531e+00,-1.648493297398090363e-02,-1.922714710235595703e-02
2.910000000000000000e+02,8.899999618530273438e+00,1.000000014901161194e-01,2.065517890059709316e-08,1.988468767422091332e-08,4.894023895263671875e+00,-1.648355089128017426e-02,-1.922482997179031372e-02
2.920000000000000000e+02,9.000000000000000000e+00,1.000000014901161194e-01,2.088846251524500985e-08,2.030927603868803999e-08,4.894012928009033203e+00,-1.648227870464324951e-02,-1.922309771180152893e-02
2.930000000000000000e+02,9.100000381469726562e+00,1.000000014901161194e-01,2.112174612989292655e-08,2.073862503948475933e-08,4.894001007080078125e+00,-1.648114621639251709e-02,-1.922146230936050415e-02
2.940000000000000000e+02,9.199999809265136719e+00,1.000000014901161194e-01,2.135502796818400384e-08,2.117273290025423194e-08,4.893987655639648438e+00,-1.648013107478618622e-02,-1.921992562711238861e-02
2.950000000000000000e+02,9.300000190734863281e+00,1.000000014901161194e-01,2.158830980647508113e-08,2.161160672642381542e-08,4.893973350524902344e+00,-1.647920161485671997e-02,-1.921889185905456543e-02
2.960000000000000000e+02,9.399999618530273438e+00,1.000000014901161194e-01,2.182158986840931902e-08,2.205523585985247337e-08,4.893958091735839844e+00,-1.647839322686195374e-02,-1.921775937080383301e-02
2.970000000000000000e+02,9.500000000000000000e+00,1.000000014901161194e-01,2.205487170670039632e-08,2.250363273503808159e-08,4.893942832946777344e+00,-1.647764816880226135e-02,-1.921708509325981140e-02
2.980000000000000000e+02,9.600000381469726562e+00,1.000000014901161194e-01,2.228815176863463421e-08,2.295678847019644309e-08,4.893927574157714844e+00,-1.647700183093547821e-02,-1.921639591455459595e-02
2.990000000000000000e+02,9.699999809265136719e+00,1.000000014901161194e-01,2.252143005421203270e-08,2.341470128897071845e-08,4.893911838531494141e+00,-1.647642999887466431e-02,-1.921570114791393280e-02
3.000000000000000000e+02,9.800000190734863281e+00,1.000000014901161194e-01,2.275470833978943119e-08,2.387738007314510469e-08,4.893896579742431641e+00,-1.647590659558773041e-02,-1.921541430056095123e-02
3.010000000000000000e+02,9.899999618530273438e+00,1.000000014901161194e-01,2.298798484900999028e-08,2.434481416457856540e-08,4.893880844116210938e+00,-1.647546887397766113e-02,-1.921494118869304657e-02
3.020000000000000000e+02,1.000000000000000000e+01,1.000000014901161194e-01,2.322126135823054938e-08,2.481701244505529758e-08,4.893866062164306641e+00,-1.647506281733512878e-02,-1.921484805643558502e-02
3.030000000000000000e+02,1.010000038146972656e+01,1.000000014901161194e-01,2.345453786745110847e-08,2.529397313821846183e-08,4.893851280212402344e+00,-1.647472195327281952e-02,-1.921467296779155731e-02
3.040000000000000000e+02,1.019999980926513672e+01,1.000000014901161194e-01,2.368781260031482816e-08,2.577568736228386115e-08,4.893837451934814453e+00,-1.647442951798439026e-02,-1.921441592276096344e-02
3.050000000000000000e+02,1.030000019073486328e+01,1.000000014901161194e-01,2.392108733317854785e-08,2.626216577539253194e-08,4.893823623657226562e+00,-1.647415757179260254e-02,-1.921452395617961884e-02
3.060000000000000000e+02,1.039999961853027344e+01,1.000000014901161194e-01,2.415436028968542814e-08,2.675340127211711660e-08,4.893810272216796875e+00,-1.647394895553588867e-02,-1.921437680721282959e-02
3.070000000000000000e+02,1.050000000000000000e+01,1.000000014901161194e-01,2.438763502254914783e-08,2.724939918152813334e-08,4.893797874450683594e+00,-1.647374592721462250e-02,-1.921457983553409576e-02
3.080000000000000000e+02,1.060000038146972656e+01,1.000000014901161194e-01,2.462090797905602813e-08,2.775015772726874275e-08,4.893785953521728516e+00,-1.647359132766723633e-02,-1.921464689075946808e-02
3.090000000000000000e+02,1.069999980926513672e+01,1.000000014901161194e-01,2.485417915920606902e-08,2.825567158026842662e-08,4.893774509429931641e+00,-1.647346466779708862e-02,-1.921459659934043884e-02
3.100000000000000000e+02,1.080000019073486328e+01,1.000000014901161194e-01,2.508745211571294931e-08,2.876594962231138197e-08,4.893763542175292969e+00,-1.647333987057209015e-02,-1.921487785875797272e-02
3.110000000000000000e+02,1.089999961853027344e+01,1.000000014901161194e-01,2.532072151950615080e-08,2.928098119525657239e-08,4.893753528594970703e+00,-1.647326163947582245e-02,-1.921487599611282349e-02
3.120000000000000000e+02,1.100000000000000000e+01,1.000000014901161194e-01,2.555399269965619169e-08,2.980077695724503428e-08,4.893743515014648438e+00,-1.647317782044410706e-02,-1.921519637107849121e-02
3.130000000000000000e+02,1.110000038146972656e+01,1.000000014901161194e-01,2.578726387980623258e-08,3.032533513191992824e-08,4.893734455108642578e+00,-1.647312566637992859e-02,-1.921535655856132507e-02
3.140000000000000000e+02,1.119999980926513672e+01,1.000000014901161194e-01,2.602053328359943407e-08,3.085464328478337848e-08,4.893725872039794922e+00,-1.647309027612209320e-02,-1.921538077294826508e-02
3.150000000000000000e+02,1.130000019073486328e+01,1.000000014901161194e-01,2.625380268739263556e-08,3.138871917940377898e-08,4.893718242645263672e+00,-1.647304743528366089e-02,-1.921571791172027588e-02
3.160000000000000000e+02,1.139999961853027344e+01,1.000000014901161194e-01,2.648707031482899765e-08,3.192754860492641455e-08,4.893710613250732422e+00,-1.647303998470306396e-02,-1.921575516462326050e-02
3.170000000000000000e+02,1.150000000000000000e+01,1.000000014901161194e-01,2.672034149497903854e-08,3.247113866677864280e-08,4.893703937530517578e+00,-1.647301577031612396e-02,-1.921610161662101746e-02
3.180000000000000000e+02,1.160000038146972656e+01,1.000000014901161194e-01,2.695361089877224003e-08,3.301949291767414252e-08,4.893697261810302734e+00,-1.647301763296127319e-02,-1.921627670526504517e-02
3.190000000000000000e+02,1.169999980926513672e+01,1.000000014901161194e-01,2.718687674985176272e-08,3.357259714675819851e-08,4.893691539764404297e+00,-1.647302880883216858e-02,-1.921630650758743286e-02
3.200000000000000000e+02,1.180000019073486328e+01,1.000000014901161194e-01,2.742014615364496422e-08,3.413046911759920476e-08,4.893685817718505859e+00,-1.647302508354187012e-02,-1.921663992106914520e-02
3.210000000000000000e+02,1.189999961853027344e+01,1.000000014901161194e-01,2.765341200472448691e-08,3.469309461934244609e-08,4.893680572509765625e+00,-1.647305116057395935e-02,-1.921666599810123444e-02
3.220000000000000000e+02,1.200000000000000000e+01,1.000000014901161194e-01,2.788668140851768840e-08,3.526048075741528010e-08,4.893675804138183594e+00,-1.647305488586425781e-02,-1.921699754893779755e-02
3.230000000000000000e+02,1.210000038146972656e+01,1.000000014901161194e-01,2.811994903595405049e-08,3.583263108453138557e-08,4.893671512603759766e+00,-1.647308096289634705e-02,-1.921715028584003448e-02
3.240000000000000000e+02,1.219999980926513672e+01,1.000000014901161194e-01,2.835321488703357318e-08,3.640953138983604731e-08,4.893667697906494141e+00,-1.647311076521873474e-02,-1.921715401113033295e-02
3.250000000000000000e+02,1.230000019073486328e+01,1.000000014901161194e-01,2.858648251446993527e-08,3.699119943689765933e-08,4.893663883209228516e+00,-1.647312194108963013e-02,-1.921745948493480682e-02
3.260000000000000000e+02,1.239999961853027344e+01,1.000000014901161194e-01,2.881974836554945796e-08,3.757761746214782761e-08,4.893660545349121094e+00,-1.647316105663776398e-02,-1.921745575964450836e-02
3.270000000000000000e+02,1.250000000000000000e+01,1.000000014901161194e-01,2.905301599298582005e-08,3.816880322915494617e-08,4.893657684326171875e+00,-1.647317409515380859e-02,-1.921775192022323608e-02
3.280000000000000000e+02,1.260000038146972656e+01,1.000000014901161194e-01,2.928628362042218214e-08,3.876474607977797859e-08,4.893654823303222656e+00,-1.647320762276649475e-02,-1.921787299215793610e-02
3.290000000000000000e+02,1.269999980926513672e+01,1.000000014901161194e-01,2.951954769514486543e-08,3.936544246130324609e-08,4.893652439117431641e+00,-1.647324115037918091e-02,-1.921784132719039917e-02
3.300000000000000000e+02,1.280000019073486328e+01,1.000000014901161194e-01,2.975281532258122752e-08,3.997090303187178506e-08,4.893650054931640625e+00,-1.647325791418552399e-02,-1.921811141073703766e-02
3.310000000000000000e+02,1.289999961853027344e+01,1.000000014901161194e-01,2.998607939730391081e-08,4.058112068605623790e-08,4.893648147583007812e+00,-1.647329702973365784e-02,-1.921807415783405304e-02
3.320000000000000000e+02,1.300000000000000000e+01,1.000000014901161194e-01,3.021934702474027290e-08,4.119609897657028341e-08,4.893646240234375000e+00,-1.647331193089485168e-02,-1.921833679080009460e-02
3.330000000000000000e+02,1.310000038146972656e+01,1.000000014901161194e-01,3.045261465217663499e-08,4.181583790341392159e-08,4.893644809722900391e+00,-1.647334359586238861e-02,-1.921842247247695923e-02
3.340000000000000000e+02,1.319999980926513672e+01,1.000000014901161194e-01,3.068587872689931828e-08,4.244033036115979485e-08,4.893642902374267578e+00,-1.647337712347507477e-02,-1.921835914254188538e-02
3.350000000000000000e+02,1.330000019073486328e+01,1.000000014901161194e-01,3.091914635433568037e-08,4.306958700794893957e-08,4.893641948699951172e+00,-1.647339016199111938e-02,-1.921859942376613617e-02
3.360000000000000000e+02,1.339999961853027344e+01,1.000000014901161194e-01,3.115241042905836366e-08,4.370359718564031937e-08,4.893640518188476562e+00,-1.647342741489410400e-02,-1.921853050589561462e-02
3.370000000000000000e+02,1.350000000000000000e+01,1.000000014901161194e-01,3.138567805649472575e-08,4.434237155237497063e-08,4.893639564514160156e+00,-1.647343859076499939e-02,-1.921876333653926849e-02
3.380000000000000000e+02,1.360000038146972656e+01,1.000000014901161194e-01,3.161894213121740904e-08,4.498590655543921457e-08,4.893638610839843750e+00,-1.647346839308738708e-02,-1.921882294118404388e-02
3.390000000000000000e+02,1.369999980926513672e+01,1.000000014901161194e-01,3.185220620594009233e-08,4.563419153669201478e-08,4.893637657165527344e+00,-1.647349633276462555e-02,-1.921873353421688080e-02
3.400000000000000000e+02,1.380000019073486328e+01,1.000000014901161194e-01,3.208547383337645442e-08,4.628724425970176526e-08,4.893637180328369141e+00,-1.647350564599037170e-02,-1.921894587576389313e-02
3.410000000000000000e+02,1.389999961853027344e+01,1.000000014901161194e-01,3.231873790809913771e-08,4.694505051361375081e-08,4.893636703491210938e+00,-1.647353917360305786e-02,-1.921885460615158081e-02
3.420000000000000000e+02,1.400000000000000000e+01,1.000000014901161194e-01,3.255200553553549980e-08,4.760762095656900783e-08,4.893636226654052734e+00,-1.647354662418365479e-02,-1.921906694769859314e-02
3.430000000000000000e+02,1.410000038146972656e+01,1.000000014901161194e-01,3.278527316297186189e-08,4.827494848314017872e-08,4.893635749816894531e+00,-1.647357083857059479e-02,-1.921910420060157776e-02
3.440000000000000000e+02,1.419999980926513672e+01,1.000000014901161194e-01,3.301853723769454518e-08,4.894702954061358469e-08,4.893635272979736328e+00,-1.647359691560268402e-02,-1.921899616718292236e-02
3.450000000000000000e+02,1.430000019073486328e+01,1.000000014901161194e-01,3.325180131241722847e-08,4.962387833984394092e-08,4.893634796142578125e+00,-1.647360250353813171e-02,-1.921919174492359161e-02
3.460000000000000000e+02,1.439999961853027344e+01,1.000000014901161194e-01,3.348506538713991176e-08,5.030547711726285343e-08,4.893634796142578125e+00,-1.647363230586051941e-02,-1.921908184885978699e-02
3.470000000000000000e+02,1.450000000000000000e+01,1.000000014901161194e-01,3.371833301457627385e-08,5.099184363643871620e-08,4.893634319305419922e+00,-1.647363789379596710e-02,-1.921927928924560547e-02
3.480000000000000000e+02,1.460000038146972656e+01,1.000000014901161194e-01,3.395160064201263594e-08,5.168297079194417165e-08,4.893634319305419922e+00,-1.647366024553775787e-02,-1.921930164098739624e-02
3.490000000000000000e+02,1.469999980926513672e+01,1.000000014901161194e-01,3.418486471673531923e-08,5.237884437292450457e-08,4.893633842468261719e+00,-1.647368259727954865e-02,-1.921918056905269623e-02
3.500000000000000000e+02,1.480000019073486328e+01,1.000000014901161194e-01,3.441812879145800252e-08,5.307948924837546656e-08,4.893633842468261719e+00,-1.647368818521499634e-02,-1.921936310827732086e-02
3.510000000000000000e+02,1.489999961853027344e+01,1.000000014901161194e-01,3.465139286618068581e-08,5.378488410201498482e-08,4.893633842468261719e+00,-1.647371612489223480e-02,-1.921924017369747162e-02
3.520000000000000000e+02,1.500000000000000000e+01,1.000000014901161194e-01,3.488466049361704790e-08,5.449504669741145335e-08,4.893633842468261719e+00,-1.647371985018253326e-02,-1.921942457556724548e-02
3.530000000000000000e+02,1.510000038146972656e+01,1.000000014901161194e-01,3.511792812105341000e-08,5.520996637642383575e-08,4.893633842468261719e+00,-1.647374033927917480e-02,-1.921943575143814087e-02
3.540000000000000000e+02,1.519999980926513672e+01,1.000000014901161194e-01,3.535119219577609329e-08,5.592963958633845323e-08,4.893633842468261719e+00,-1.647376455366611481e-02,-1.921929977834224701e-02
3.550000000000000000e+02,1.530000019073486328e+01,1.000000014901161194e-01,3.558445627049877658e-08,5.665407698529634217e-08,4.893633842468261719e+00,-1.647376827895641327e-02,-1.921946741640567780e-02
3.560000000000000000e+02,1.539999961853027344e+01,1.000000014901161194e-01,3.581772034522145987e-08,5.738326791515646619e-08,4.893633842468261719e+00,-1.647379621863365173e-02,-1.921932958066463470e-02
3.570000000000000000e+02,1.550000000000000000e+01,1.000000014901161194e-01,3.605098797265782196e-08,5.811722303405986167e-08,4.893633365631103516e+00,-1.647379994392395020e-02,-1.921949535608291626e-02
3.580000000000000000e+02,1.560000038146972656e+01,1.000000014901161194e-01,3.628425560009418405e-08,5.885593878929284983e-08,4.893633365631103516e+00,-1.647382043302059174e-02,-1.921948418021202087e-02
3.590000000000000000e+02,1.569999980926513672e+01,1.000000014901161194e-01,3.651751967481686734e-08,5.959940807542807306e-08,4.893633365631103516e+00,-1.647384092211723328e-02,-1.921932213008403778e-02
3.600000000000000000e+02,1.580000019073486328e+01,1.000000014901161194e-01,3.675078374953955063e-08,6.034763799789288896e-08,4.893632888793945312e+00,-1.647384278476238251e-02,-1.921945810317993164e-02
3.610000000000000000e+02,1.589999961853027344e+01,1.000000014901161194e-01,3.698404782426223392e-08,6.110062855668729753e-08,4.893632411956787109e+00,-1.647386886179447174e-02,-1.921928115189075470e-02
3.620000000000000000e+02,1.600000000000000000e+01,1.000000014901161194e-01,3.721731545169859601e-08,6.185837975181129877e-08,4.893631935119628906e+00,-1.647386886179447174e-02,-1.921940222382545471e-02
3.630000000000000000e+02,1.610000038146972656e+01,1.000000014901161194e-01,3.745058307913495810e-08,6.262089158326489269e-08,4.893631458282470703e+00,-1.647388003766536713e-02,-1.921933703124523163e-02
3.640000000000000000e+02,1.620000076293945312e+01,1.000000014901161194e-01,3.768384715385764139e-08,6.338816405104807927e-08,4.893630504608154297e+00,-1.647388562560081482e-02,-1.921923458576202393e-02
3.650000000000000000e+02,1.629999923706054688e+01,1.000000014901161194e-01,3.791711122858032468e-08,6.416017583887878573e-08,4.893629550933837891e+00,-1.647390238940715790e-02,-1.921883411705493927e-02
3.660000000000000000e+02,1.639999961853027344e+01,1.000000014901161194e-01,3.815037530330300797e-08,6.493696247389380005e-08,4.893628120422363281e+00,-1.647387258708477020e-02,-1.921903155744075775e-02
3.670000000000000000e+02,1.650000000000000000e+01,1.000000014901161194e-01,3.838364293073937006e-08,6.571851685066576465e-08,4.893626689910888672e+00,-1.647387072443962097e-02,-1.921886391937732697e-02
3.680000000000000000e+02,1.660000038146972656e+01,1.000000014901161194e-01,3.861690700546205335e-08,6.650482475833996432e-08,4.893624782562255859e+00,-1.647384837269783020e-02,-1.921864040195941925e-02
3.690000000000000000e+02,1.670000076293945312e+01,1.000000014901161194e-01,3.885017463289841544e-08,6.729588619691639906e-08,4.893621921539306641e+00,-1.647381484508514404e-02,-1.921835169196128845e-02
3.700000000000000000e+02,1.679999923706054688e+01,1.000000014901161194e-01,3.908343515490741993e-08,6.809170116639506887e-08,4.893619060516357422e+00,-1.647378131747245789e-02,-1.921772398054599762e-02
3.710000000000000000e+02,1.689999961853027344e+01,1.000000014901161194e-01,3.931669922963010322e-08,6.889228387763068895e-08,4.893615245819091797e+00,-1.647369004786014557e-02,-1.921764947474002838e-02
3.720000000000000000e+02,1.700000000000000000e+01,1.000000014901161194e-01,3.954996685706646531e-08,6.969762722519590170e-08,4.893610477447509766e+00,-1.647360809147357941e-02,-1.921715587377548218e-02
3.730000000000000000e+02,1.710000038146972656e+01,1.000000014901161194e-01,3.978323093178914860e-08,7.050773120909070713e-08,4.893604755401611328e+00,-1.647348701953887939e-02,-1.921654306352138519e-02
3.740000000000000000e+02,1.720000076293945312e+01,1.000000014901161194e-01,4.001649500651183189e-08,7.132259582931510522e-08,4.893597602844238281e+00,-1.647333055734634399e-02,-1.921578496694564819e-02
3.750000000000000000e+02,1.729999923706054688e+01,1.000000014901161194e-01,4.024975552852083638e-08,7.214219976958702318e-08,4.893589496612548828e+00,-1.647314429283142090e-02,-1.921459659934043884e-02
3.760000000000000000e+02,1.739999961853027344e+01,1.000000014901161194e-01,4.048301960324351967e-08,7.296658566247060662e-08,4.893579959869384766e+00,-1.647286489605903625e-02,-1.921385340392589569e-02
3.770000000000000000e+02,1.750000000000000000e+01,1.000000014901161194e-01,4.071628367796620296e-08,7.379572508625642513e-08,4.893568038940429688e+00,-1.647255197167396545e-02,-1.921255886554718018e-02
3.780000000000000000e+02,1.760000038146972656e+01,1.000000014901161194e-01,4.094954419997520745e-08,7.462962514637183631e-08,4.893553733825683594e+00,-1.647214777767658234e-02,-1.921098679304122925e-02
3.790000000000000000e+02,1.770000076293945312e+01,1.000000014901161194e-01,4.118280827469789074e-08,7.546828584281684016e-08,4.893537044525146484e+00,-1.647164672613143921e-02,-1.920908503234386444e-02
3.800000000000000000e+02,1.779999923706054688e+01,1.000000014901161194e-01,4.141606169127953763e-08,7.631169296473672148e-08,4.893517494201660156e+00,-1.647103950381278992e-02,-1.920652762055397034e-02
3.810000000000000000e+02,1.789999961853027344e+01,1.000000014901161194e-01,4.164932221328854212e-08,7.715986782841355307e-08,4.893493652343750000e+00,-1.647024415433406830e-02,-1.920413784682750702e-02
3.820000000000000000e+02,1.800000000000000000e+01,1.000000014901161194e-01,4.188258273529754661e-08,7.801281043384733493e-08,4.893465995788574219e+00,-1.646930165588855743e-02,-1.920086704194545746e-02
3.830000000000000000e+02,1.810000038146972656e+01,1.000000014901161194e-01,4.211583970459287229e-08,7.887050657018335187e-08,4.893433094024658203e+00,-1.646812632679939270e-02,-1.919690892100334167e-02
3.840000000000000000e+02,1.820000076293945312e+01,1.000000014901161194e-01,4.234909312117451918e-08,7.973296334284896147e-08,4.893393993377685547e+00,-1.646667718887329102e-02,-1.919211074709892273e-02
3.850000000000000000e+02,1.829999923706054688e+01,1.000000014901161194e-01,4.258234298504248727e-08,8.060015943556209095e-08,4.893347740173339844e+00,-1.646490208804607391e-02,-1.918602176010608673e-02
3.860000000000000000e+02,1.839999961853027344e+01,1.000000014901161194e-01,4.281559284891045536e-08,8.147213748088688590e-08,4.893292903900146484e+00,-1.646266318857669830e-02,-1.917929574847221375e-02
3.870000000000000000e+02,1.850000000000000000e+01,1.000000014901161194e-01,4.304883916006474465e-08,8.234886905711391591e-08,4.893228530883789062e+00,-1.645992323756217957e-02,-1.917064934968948364e-02
3.880000000000000000e+02,1.860000038146972656e+01,1.000000014901161194e-01,4.328208191850535513e-08,8.323036126967053860e-08,4.893151283264160156e+00,-1.645649410784244537e-02,-1.915996521711349487e-02
3.890000000000000000e+02,1.870000076293945312e+01,1.000000014901161194e-01,4.351532112423228682e-08,8.411661411855675397e-08,4.893060207366943359e+00,-1.645219326019287109e-02,-1.914664171636104584e-02
3.900000000000000000e+02,1.879999923706054688e+01,1.000000014901161194e-01,4.374854967181818211e-08,8.500760628749048919e-08,4.892951011657714844e+00,-1.644676737487316132e-02,-1.912958733737468719e-02
3.910000000000000000e+02,1.889999961853027344e+01,1.000000014901161194e-01,4.398177821940407739e-08,8.590336619818117470e-08,4.892820358276367188e+00,-1.643979363143444061e-02,-1.910850778222084045e-02
3.920000000000000000e+02,1.900000000000000000e+01,1.000000014901161194e-01,4.421499610884893627e-08,8.680389385062881047e-08,4.892663002014160156e+00,-1.643081568181514740e-02,-1.908068172633647919e-02
3.930000000000000000e+02,1.910000038146972656e+01,1.000000014901161194e-01,4.444820689286643756e-08,8.770916792855132371e-08,4.892472267150878906e+00,-1.641900837421417236e-02,-1.904371567070484161e-02
3.940000000000000000e+02,1.920000076293945312e+01,1.000000014901161194e-01,4.468140701874290244e-08,8.861919553737607202e-08,4.892239570617675781e+00,-1.640320755541324615e-02,-1.899329014122486115e-02
3.950000000000000000e+02,1.929999923706054688e+01,1.000000014901161194e-01,4.491458582833729452e-08,8.953396246624834021e-08,4.891952991485595703e+00,-1.638158969581127167e-02,-1.892189495265483856e-02
3.960000000000000000e+02,1.939999961853027344e+01,1.000000014901161194e-01,4.514775397979065019e-08,9.045349003145020106e-08,4.891598224639892578e+00,-1.635114662349224091e-02,-1.881750300526618958e-02
3.970000000000000000e+02,1.950000000000000000e+01,1.000000014901161194e-01,4.538090081496193307e-08,9.137776402212693938e-08,4.891157150268554688e+00,-1.630715467035770416e-02,-1.865423098206520081e-02
3.980000000000000000e+02,1.960000038146972656e+01,1.000000014901161194e-01,4.561401922842378553e-08,9.230677022742383997e-08,4.890617847442626953e+00,-1.624113135039806366e-02,-1.837907731533050537e-02
3.990000000000000000e+02,1.970000076293945312e+01,1.000000014901161194e-01,4.584710922017620760e-08,9.324048733105883002e-08,4.890017509460449219e+00,-1.614362932741641998e-02,-1.786279864609241486e-02
4.000000000000000000e+02,1.979999923706054688e+01,1.000000014901161194e-01,4.608017434293287806e-08,9.417885848961304873e-08,4.889659881591796875e+00,-1.594204641878604889e-02,-1.674010790884494781e-02
4.010000000000000000e+02,1.989999961853027344e+01,1.000000014901161194e-01,4.631330696724944573e-08,9.512177001624877448e-08,4.891090393066406250e+00,-1.562866754829883575e-02,-1.396151911467313766e-02
4.020000000000000000e+02,2.000000000000000000e+01,1.000000014901161194e-01,4.654665985981409904e-08,9.606878847989719361e-08,4.898843288421630859e+00,-5.221048835664987564e-03,-8.058154024183750153e-03
4.030000000000000000e+02,0.000000000000000000e+00,2.000000029802322388e-01,2.994977719596596752e-37,1.131550527812078413e-37,5.300686359405517578e+00,1.590205907821655273e+00,1.023890495300292969e+00
4.040000000000000000e+02,1.000000014901161194e-01,2.000000029802322388e-01,2.296964146664137729e-10,1.267674021310227772e-10,5.049433231353759766e+00,7.526946067810058594e-01,7.991002202033996582e-01
4.050000000000000000e+02,2.000000029802322388e-01,2.000000029802322388e-01,4.715622892170756586e-10,2.634511497845437589e-10,5.143479824066162109e+00,2.143230438232421875e-01,5.986984372138977051e-01
4.060000000000000000e+02,3.000000119209289551e-01,2.000000029802322388e-01,7.189692730058538928e-10,3.909990942130292524e-10,5.241431236267089844e+00,1.529507637023925781e-01,4.251781105995178223e-01
4.070000000000000000e+02,4.000000059604644775e-01,2.000000029802322388e-01,9.622083130267355955e-10,5.044033524193025642e-10,5.137385845184326172e+00,9.788770228624343872e-02,2.782708704471588135e-01
4.080000000000000000e+02,5.000000000000000000e-01,2.000000029802322388e-01,1.200271770862570975e-09,6.073397340600195093e-10,5.019444465637207031e+00,6.703722476959228516e-02,1.858649402856826782e-01
4.090000000000000000e+02,6.000000238418579102e-01,2.000000029802322388e-01,1.433848928478198559e-09,7.027289306016371029e-10,4.918868064880371094e+00,4.582912102341651917e-02,1.244822293519973755e-01
4.100000000000000000e+02,6.999999880790710449e-01,2.000000029802322388e-01,1.663923221428831312e-09,7.929330525513478278e-10,4.840965270996093750e+00,3.134101256728172302e-02,8.300889283418655396e-02
4.110000000000000000e+02,8.000000119209289551e-01,2.000000029802322388e-01,1.891355960736973429e-09,8.797143014049879639e-10,4.782380580902099609e+00,2.099058590829372406e-02,5.400642752647399902e-02
4.120000000000000000e+02,8.999999761581420898e-01,2.000000029802322388e-01,2.116831598897306321e-09,9.644217646709307701e-10,4.739008903503417969e+00,1.338850893080234528e-02,3.319993615150451660e-02
4.130000000000000000e+02,1.000000000000000000e+00,2.000000029802322388e-01,2.340880378426390962e-09,1.048108155821125820e-09,4.707317352294921875e+00,7.652756292372941971e-03,1.794471591711044312e-02
4.140000000000000000e+02,1.100000023841857910e+00,2.000000029802322388e-01,2.563908418906635234e-09,1.131612137328374956e-09,4.684556007385253906e+00,3.228562418371438980e-03,6.568273529410362244e-03
4.150000000000000000e+02,1.200000047683715820e+00,2.000000029802322388e-01,2.786227915052563731e-09,1.215614831018285713e-09,4.668637275695800781e+00,-2.487186575308442116e-04,-2.027723239734768867e-03
4.160000000000000000e+02,1.299999952316284180e+00,2.000000029802322388e-01,3.008079563215915186e-09,1.300677787696713494e-09,4.657980918884277344e+00,-3.025313606485724449e-03,-8.585932664573192596e-03
4.170000000000000000e+02,1.399999976158142090e+00,2.000000029802322388e-01,3.229649436775616778e-09,1.387270853747679666e-09,4.651384830474853516e+00,-5.272262729704380035e-03,-1.362233236432075500e-02
4.180000000000000000e+02,1.500000000000000000e+00,2.000000029802322388e-01,3.451081198591054999e-09,1.475791266969395110e-09,4.647928714752197266e+00,-7.111290935426950455e-03,-1.750380545854568481e-02
4.190000000000000000e+02,1.600000023841857910e+00,2.000000029802322388e-01,3.672485426875482517e-09,1.566578200495882811e-09,4.646902561187744141e+00,-8.630947209894657135e-03,-2.049672789871692657e-02
4.200000000000000000e+02,1.700000047683715820e+00,2.000000029802322388e-01,3.893948719024820093e-09,1.659923642982619185e-09,4.647752285003662109e+00,-9.896911680698394775e-03,-2.279803715646266937e-02
4.210000000000000000e+02,1.799999952316284180e+00,2.000000029802322388e-01,4.115535467974495987e-09,1.756080725279218768e-09,4.650043487548828125e+00,-1.095876190811395645e-02,-2.455567941069602966e-02
4.220000000000000000e+02,1.899999976158142090e+00,2.000000029802322388e-01,4.337296743983642955e-09,1.855270936879094279e-09,4.653431892395019531e+00,-1.185451354831457138e-02,-2.588250301778316498e-02
4.230000000000000000e+02,2.000000000000000000e+00,2.000000029802322388e-01,4.559269850545888403e-09,1.957687567610832957e-09,4.657644748687744141e+00,-1.261371932923793793e-02,-2.686555683612823486e-02
4.240000000000000000e+02,2.099999904632568359e+00,2.000000029802322388e-01,4.781480988924613484e-09,2.063501591820227077e-09,4.662464141845703125e+00,-1.325966976583003998e-02,-2.757288329303264618e-02
4.250000000000000000e+02,2.200000047683715820e+00,2.000000029802322388e-01,5.003951031312681152e-09,2.172864332905533047e-09,4.667715549468994141e+00,-1.381092425435781479e-02,-2.805827185511589050e-02
4.260000000000000000e+02,2.299999952316284180e+00,2.000000029802322388e-01,5.226690635851127809e-09,2.285909239674310811e-09,4.673257350921630859e+00,-1.428242679685354233e-02,-2.836440317332744598e-02
4.270000000000000000e+02,2.400000095367431641e+00,2.000000029802322388e-01,5.449709128413360304e-09,2.402755550079405111e-09,4.678977489471435547e+00,-1.468635536730289459e-02,-2.852584421634674072e-02
4.280000000000000000e+02,2.500000000000000000e+00,2.000000029802322388e-01,5.673008729445427889e-09,2.523509623486575038e-09,4.684784412384033203e+00,-1.503268163651227951e-02,-2.857031300663948059e-02
4.290000000000000000e+02,2.599999904632568359e+00,2.000000029802322388e-01,5.896589883036540414e-09,2.648266050897518653e-09,4.690605163574218750e+00,-1.532970089465379715e-02,-2.852065861225128174e-02
4.300000000000000000e+02,2.700000047683715820e+00,2.000000029802322388e-01,6.120449924651438778e-09,2.777110097440527170e-09,4.696381568908691406e+00,-1.558430492877960205e-02,-2.839554473757743835e-02
4.310000000000000000e+02,2.799999952316284180e+00,2.000000029802322388e-01,6.344583525219604780e-09,2.910117258281275099e-09,4.702066421508789062e+00,-1.580229774117469788e-02,-2.821023017168045044e-02
4.320000000000000000e+02,2.900000095367431641e+00,2.000000029802322388e-01,6.568984467492100521e-09,3.047356367247289199e-09,4.707623958587646484e+00,-1.598860323429107666e-02,-2.797764167189598083e-02
4.330000000000000000e+02,3.000000000000000000e+00,2.000000029802322388e-01,6.793644757863148698e-09,3.188887598426504155e-09,4.713024616241455078e+00,-1.614739187061786652e-02,-2.770821191370487213e-02
4.340000000000000000e+02,3.099999904632568359e+00,2.000000029802322388e-01,7.018555514548552310e-09,3.334766240925546299e-09,4.718247890472412109e+00,-1.628226973116397858e-02,-2.741092070937156677e-02
4.350000000000000000e+02,3.200000047683715820e+00,2.000000029802322388e-01,7.243708299853324206e-09,3.485041588646708988e-09,4.723276138305664062e+00,-1.639630831778049469e-02,-2.709316834807395935e-02
4.360000000000000000e+02,3.299999952316284180e+00,2.000000029802322388e-01,7.469091123368798435e-09,3.639756940287952602e-09,4.728098869323730469e+00,-1.649218238890171051e-02,-2.676100656390190125e-02
4.370000000000000000e+02,3.400000095367431641e+00,2.000000029802322388e-01,7.694695547399987845e-09,3.798953152056583349e-09,4.732707500457763672e+00,-1.657221838831901550e-02,-2.641979791224002838e-02
4.380000000000000000e+02,3.500000000000000000e+00,2.000000029802322388e-01,7.920508693359806784e-09,3.962663974732549832e-09,4.737098217010498047e+00,-1.663842611014842987e-02,-2.607368864119052887e-02
4.390000000000000000e+02,3.599999904632568359e+00,2.000000029802322388e-01,8.146521679464058252e-09,4.130921826828171106e-09,4.741268634796142578e+00,-1.669259928166866302e-02,-2.572642825543880463e-02
4.400000000000000000e+02,3.700000047683715820e+00,2.000000029802322388e-01,8.372723847571705846e-09,4.303756018231297276e-09,4.745219230651855469e+00,-1.673627458512783051e-02,-2.538102492690086365e-02
4.410000000000000000e+02,3.799999952316284180e+00,2.000000029802322388e-01,8.599103651363293466e-09,4.481190085670050394e-09,4.748951911926269531e+00,-1.677081920206546783e-02,-2.503981813788414001e-02
4.420000000000000000e+02,3.900000095367431641e+00,2.000000029802322388e-01,8.825652209054624109e-09,4.663248009961762364e-09,4.752470970153808594e+00,-1.679744757711887360e-02,-2.470503561198711395e-02
4.430000000000000000e+02,4.000000000000000000e+00,2.000000029802322388e-01,9.052357974326241674e-09,4.849948886942456738e-09,4.755780220031738281e+00,-1.681721024215221405e-02,-2.437814325094223022e-02
4.440000000000000000e+02,4.099999904632568359e+00,2.000000029802322388e-01,9.279212065393949160e-09,5.041310924269737370e-09,4.758885860443115234e+00,-1.683105900883674622e-02,-2.406061068177223206e-02
4.450000000000000000e+02,4.199999809265136719e+00,2.000000029802322388e-01,9.506204712295129866e-09,5.237350109155158862e-09,4.761794567108154297e+00,-1.683982834219932556e-02,-2.375343628227710724e-02
4.460000000000000000e+02,4.300000190734863281e+00,2.000000029802322388e-01,9.733327921424006490e-09,5.438081540631856114e-09,4.764513015747070312e+00,-1.684423908591270447e-02,-2.345751412212848663e-02
4.470000000000000000e+02,4.400000095367431641e+00,2.000000029802322388e-01,9.960570146461122931e-09,5.643515432751655680e-09,4.767048835754394531e+00,-1.684493571519851685e-02,-2.317316085100173950e-02
4.480000000000000000e+02,4.500000000000000000e+00,2.000000029802322388e-01,1.018792517015754129e-08,5.853663331834013661e-09,4.769409656524658203e+00,-1.684251613914966583e-02,-2.290106192231178284e-02
4.490000000000000000e+02,4.599999904632568359e+00,2.000000029802322388e-01,1.041538499890748426e-08,6.068535451930756608e-09,4.771604061126708984e+00,-1.683747395873069763e-02,-2.264138311147689819e-02
4.500000000000000000e+02,4.699999809265136719e+00,2.000000029802322388e-01,1.064294163910517454e-08,6.288139786647661822e-09,4.773639202117919922e+00,-1.683026552200317383e-02,-2.239424921572208405e-02
4.510000000000000000e+02,4.800000190734863281e+00,2.000000029802322388e-01,1.087058798532325454e-08,6.512484329590506604e-09,4.775523662567138672e+00,-1.682127453386783600e-02,-2.215976454317569733e-02
4.520000000000000000e+02,4.900000095367431641e+00,2.000000029802322388e-01,1.109831693213436665e-08,6.741573965740599306e-09,4.777265071868896484e+00,-1.681084372103214264e-02,-2.193756587803363800e-02
4.530000000000000000e+02,5.000000000000000000e+00,2.000000029802322388e-01,1.132612226228957297e-08,6.975414468257667977e-09,4.778872013092041016e+00,-1.679929532110691071e-02,-2.172776311635971069e-02
4.540000000000000000e+02,5.099999904632568359e+00,2.000000029802322388e-01,1.155399775853993560e-08,7.214011166212230819e-09,4.780352115631103516e+00,-1.678688079118728638e-02,-2.153003029525279999e-02
4.550000000000000000e+02,5.199999809265136719e+00,2.000000029802322388e-01,1.178193809181493634e-08,7.457367168228756782e-09,4.781712532043457031e+00,-1.677384600043296814e-02,-2.134408243000507355e-02
4.560000000000000000e+02,5.300000190734863281e+00,2.000000029802322388e-01,1.200993793304405699e-08,7.705487803377764067e-09,4.782960891723632812e+00,-1.676037535071372986e-02,-2.116967365145683289e-02
4.570000000000000000e+02,5.400000095367431641e+00,2.000000029802322388e-01,1.223799195315677935e-08,7.958373515748462523e-09,4.784104347229003906e+00,-1.674664020538330078e-02,-2.100615762174129486e-02
4.580000000000000000e+02,5.500000000000000000e+00,2.000000029802322388e-01,1.246609482308258521e-08,8.216026081697691552e-09,4.785150051116943359e+00,-1.673281006515026093e-02,-2.085341140627861023e-02
4.590000000000000000e+02,5.599999904632568359e+00,2.000000029802322388e-01,1.269424299010779578e-08,8.478449942117549654e-09,4.786103725433349609e+00,-1.671899482607841492e-02,-2.071092091500759125e-02
4.600000000000000000e+02,5.699999809265136719e+00,2.000000029802322388e-01,1.292243290151873225e-08,8.745644208829617128e-09,4.786972999572753906e+00,-1.670531556010246277e-02,-2.057825401425361633e-02
4.610000000000000000e+02,5.800000190734863281e+00,2.000000029802322388e-01,1.315066011642329613e-08,9.017613322725992475e-09,4.787762641906738281e+00,-1.669184863567352295e-02,-2.045505680143833160e-02
4.620000000000000000e+02,5.900000095367431641e+00,2.000000029802322388e-01,1.337892108210780862e-08,9.294354619271416595e-09,4.788479328155517578e+00,-1.667866483330726624e-02,-2.034060284495353699e-02
4.630000000000000000e+02,6.000000000000000000e+00,2.000000029802322388e-01,1.360721313403701060e-08,9.575868986644309189e-09,4.789127826690673828e+00,-1.666584610939025879e-02,-2.023471333086490631e-02
4.640000000000000000e+02,6.099999904632568359e+00,2.000000029802322388e-01,1.383553183131880360e-08,9.862158201201509655e-09,4.789713859558105469e+00,-1.665342599153518677e-02,-2.013685181736946106e-02
4.650000000000000000e+02,6.199999809265136719e+00,2.000000029802322388e-01,1.406387628577476789e-08,1.015322226294301799e-08,4.790242195129394531e+00,-1.664145477116107941e-02,-2.004657499492168427e-02
4.660000000000000000e+02,6.300000190734863281e+00,2.000000029802322388e-01,1.429224472104806409e-08,1.044906294822567361e-08,4.790717124938964844e+00,-1.662994921207427979e-02,-1.996353827416896820e-02
4.670000000000000000e+02,6.400000095367431641e+00,2.000000029802322388e-01,1.452063091988975430e-08,1.074967581615737799e-08,4.791142940521240234e+00,-1.661892421543598175e-02,-1.988703943789005280e-02
4.680000000000000000e+02,6.500000000000000000e+00,2.000000029802322388e-01,1.474903577047825820e-08,1.105506441945180995e-08,4.791524410247802734e+00,-1.660841517150402069e-02,-1.981694065034389496e-02
4.690000000000000000e+02,6.599999904632568359e+00,2.000000029802322388e-01,1.497745749645673641e-08,1.136522609357371039e-08,4.791864395141601562e+00,-1.659841649234294891e-02,-1.975275017321109772e-02
4.700000000000000000e+02,6.699999809265136719e+00,2.000000029802322388e-01,1.520589165693309042e-08,1.168016172670149899e-08,4.792167186737060547e+00,-1.658894121646881104e-02,-1.969408057630062103e-02
4.710000000000000000e+02,6.800000190734863281e+00,2.000000029802322388e-01,1.543434180462099903e-08,1.199987220701359547e-08,4.792435169219970703e+00,-1.657997258007526398e-02,-1.964065618813037872e-02
4.720000000000000000e+02,6.900000095367431641e+00,2.000000029802322388e-01,1.566280083409310464e-08,1.232435398179632102e-08,4.792672634124755859e+00,-1.657150313258171082e-02,-1.959183998405933380e-02
4.730000000000000000e+02,7.000000000000000000e+00,2.000000029802322388e-01,1.589126874534940725e-08,1.265360705104967565e-08,4.792881488800048828e+00,-1.656354404985904694e-02,-1.954756863415241241e-02
4.740000000000000000e+02,7.099999904632568359e+00,2.000000029802322388e-01,1.611974731474674627e-08,1.298763319113049874e-08,4.793065071105957031e+00,-1.655606739223003387e-02,-1.950742863118648529e-02
4.750000000000000000e+02,7.199999809265136719e+00,2.000000029802322388e-01,1.634823121321460349e-08,1.332642973750353121e-08,4.793224811553955078e+00,-1.654907315969467163e-02,-1.947111077606678009e-02
4.760000000000000000e+02,7.300000190734863281e+00,2.000000029802322388e-01,1.657672399346665770e-08,1.366999846652561246e-08,4.793364048004150391e+00,-1.654252782464027405e-02,-1.943841949105262756e-02
4.770000000000000000e+02,7.400000095367431641e+00,2.000000029802322388e-01,1.680522210278923012e-08,1.401833582548306367e-08,4.793484687805175781e+00,-1.653641834855079651e-02,-1.940879784524440765e-02
4.780000000000000000e+02,7.500000000000000000e+00,2.000000029802322388e-01,1.703372376482548134e-08,1.437144181437588486e-08,4.793588161468505859e+00,-1.653074100613594055e-02,-1.938226632773876190e-02
4.790000000000000000e+02,7.599999904632568359e+00,2.000000029802322388e-01,1.726222897957541136e-08,1.472931732138249572e-08,4.793676376342773438e+00,-1.652546599507331848e-02,-1.935848779976367950e-02
4.800000000000000000e+02,7.699999809265136719e+00,2.000000029802322388e-01,1.749073952339585958e-08,1.509196145832447655e-08,4.793750762939453125e+00,-1.652058400213718414e-02,-1.933723315596580505e-02
4.810000000000000000e+02,7.800000190734863281e+00,2.000000029802322388e-01,1.771925361992998660e-08,1.545937422520182736e-08,4.793813705444335938e+00,-1.651606149971485138e-02,-1.931838132441043854e-02
4.820000000000000000e+02,7.900000095367431641e+00,2.000000029802322388e-01,1.794776771646411362e-08,1.583155118112244963e-08,4.793865680694580078e+00,-1.651187799870967865e-02,-1.930145546793937683e-02
4.830000000000000000e+02,8.000000000000000000e+00,2.000000029802322388e-01,1.817628536571191944e-08,1.620849587880002218e-08,4.793908119201660156e+00,-1.650804281234741211e-02,-1.928654126822948456e-02
4.840000000000000000e+02,8.100000381469726562e+00,2.000000029802322388e-01,1.840480479131656466e-08,1.659020831823454500e-08,4.793941974639892578e+00,-1.650450006127357483e-02,-1.927347853779792786e-02
4.850000000000000000e+02,8.199999809265136719e+00,2.000000029802322388e-01,1.863332244056437048e-08,1.697668317035549990e-08,4.793968677520751953e+00,-1.650125347077846527e-02,-1.926171593368053436e-02
4.860000000000000000e+02,8.300000190734863281e+00,2.000000029802322388e-01,1.886184541888269450e-08,1.736792576423340506e-08,4.793988704681396484e+00,-1.649828255176544189e-02,-1.925177127122879028e-02
4.870000000000000000e+02,8.399999618530273438e+00,2.000000029802322388e-01,1.909036484448733972e-08,1.776393077079774230e-08,4.794003486633300781e+00,-1.649556122720241547e-02,-1.924274675548076630e-02
4.880000000000000000e+02,8.500000000000000000e+00,2.000000029802322388e-01,1.931888782280566375e-08,1.816470174276219041e-08,4.794013023376464844e+00,-1.649310067296028137e-02,-1.923527196049690247e-02
4.890000000000000000e+02,8.600000381469726562e+00,2.000000029802322388e-01,1.954741080112398777e-08,1.857023868012674939e-08,4.794018745422363281e+00,-1.649082638323307037e-02,-1.922866888344287872e-02
4.900000000000000000e+02,8.699999809265136719e+00,2.000000029802322388e-01,1.977593200308547239e-08,1.898053447746406164e-08,4.794020652770996094e+00,-1.648877933621406555e-02,-1.922282017767429352e-02
4.910000000000000000e+02,8.800000190734863281e+00,2.000000029802322388e-01,2.000445498140379641e-08,1.939559624020148476e-08,4.794019699096679688e+00,-1.648692414164543152e-02,-1.921819709241390228e-02
4.920000000000000000e+02,8.899999618530273438e+00,2.000000029802322388e-01,2.023297618336528103e-08,1.981541686291166116e-08,4.794015884399414062e+00,-1.648523844778537750e-02,-1.921395026147365570e-02
4.930000000000000000e+02,9.000000000000000000e+00,2.000000029802322388e-01,2.046149738532676565e-08,2.024000522737878782e-08,4.794010162353515625e+00,-1.648374088108539581e-02,-1.921075209975242615e-02
4.940000000000000000e+02,9.100000381469726562e+00,2.000000029802322388e-01,2.069002036364508967e-08,2.066935422817550716e-08,4.794002532958984375e+00,-1.648235879838466644e-02,-1.920797117054462433e-02
4.950000000000000000e+02,9.199999809265136719e+00,2.000000029802322388e-01,2.091853978924973489e-08,2.110346208894497977e-08,4.793993473052978516e+00,-1.648113504052162170e-02,-1.920552365481853485e-02
4.960000000000000000e+02,9.300000190734863281e+00,2.000000029802322388e-01,2.114706099121121952e-08,2.154233591511456325e-08,4.793983459472656250e+00,-1.648003980517387390e-02,-1.920391991734504700e-02
4.970000000000000000e+02,9.399999618530273438e+00,2.000000029802322388e-01,2.137558041681586474e-08,2.198596682490006060e-08,4.793972492218017578e+00,-1.647905446588993073e-02,-1.920234411954879761e-02
4.980000000000000000e+02,9.500000000000000000e+00,2.000000029802322388e-01,2.160409984242050996e-08,2.243436192372882942e-08,4.793961048126220703e+00,-1.647819951176643372e-02,-1.920150034129619598e-02
4.990000000000000000e+02,9.600000381469726562e+00,2.000000029802322388e-01,2.183261926802515518e-08,2.288751943524403032e-08,4.793949127197265625e+00,-1.647740602493286133e-02,-1.920078508555889130e-02
5.000000000000000000e+02,9.699999809265136719e+00,2.000000029802322388e-01,2.206113514091612160e-08,2.334543225401830568e-08,4.793936729431152344e+00,-1.647672429680824280e-02,-1.920014433562755585e-02
5.010000000000000000e+02,9.800000190734863281e+00,2.000000029802322388e-01,2.228965456652076682e-08,2.380811103819269192e-08,4.793924331665039062e+00,-1.647612079977989197e-02,-1.920011267066001892e-02
5.020000000000000000e+02,9.899999618530273438e+00,2.000000029802322388e-01,2.251817043941173324e-08,2.427554512962615263e-08,4.793911933898925781e+00,-1.647558622062206268e-02,-1.919989660382270813e-02
5.030000000000000000e+02,1.000000000000000000e+01,2.000000029802322388e-01,2.274668631230269966e-08,2.474774518645972421e-08,4.793899536132812500e+00,-1.647513918578624725e-02,-1.920022256672382355e-02
5.040000000000000000e+02,1.010000038146972656e+01,2.000000029802322388e-01,2.297520396155050548e-08,2.522470410326604906e-08,4.793887138366699219e+00,-1.647471822798252106e-02,-1.920051127672195435e-02
5.050000000000000000e+02,1.019999980926513672e+01,2.000000029802322388e-01,2.320371805808463250e-08,2.570641832733144838e-08,4.793875217437744141e+00,-1.647437177598476410e-02,-1.920070871710777283e-02
5.060000000000000000e+02,1.030000019073486328e+01,2.000000029802322388e-01,2.343223215461875952e-08,2.619289851679695857e-08,4.793863773345947266e+00,-1.647407189011573792e-02,-1.920139789581298828e-02
5.070000000000000000e+02,1.039999961853027344e+01,2.000000029802322388e-01,2.366074625115288654e-08,2.668413223716470384e-08,4.793852329254150391e+00,-1.647381111979484558e-02,-1.920176111161708832e-02
5.080000000000000000e+02,1.050000000000000000e+01,2.000000029802322388e-01,2.388926034768701356e-08,2.718013192293255997e-08,4.793841838836669922e+00,-1.647361181676387787e-02,-1.920258067548274994e-02
5.090000000000000000e+02,1.060000038146972656e+01,2.000000029802322388e-01,2.411777444422114058e-08,2.768089046867316938e-08,4.793831348419189453e+00,-1.647341065108776093e-02,-1.920325309038162231e-02
5.100000000000000000e+02,1.069999980926513672e+01,2.000000029802322388e-01,2.434628498804158880e-08,2.818640432167285326e-08,4.793821334838867188e+00,-1.647326163947582245e-02,-1.920375414192676544e-02
5.110000000000000000e+02,1.080000019073486328e+01,2.000000029802322388e-01,2.457479730821887642e-08,2.869668058735896921e-08,4.793811798095703125e+00,-1.647313870489597321e-02,-1.920467615127563477e-02
5.120000000000000000e+02,1.089999961853027344e+01,2.000000029802322388e-01,2.480330785203932464e-08,2.921171393666099902e-08,4.793802738189697266e+00,-1.647303439676761627e-02,-1.920520886778831482e-02
5.130000000000000000e+02,1.100000000000000000e+01,2.000000029802322388e-01,2.503182017221661226e-08,2.973150969864946092e-08,4.793794155120849609e+00,-1.647297479212284088e-02,-1.920614205300807953e-02
5.140000000000000000e+02,1.110000038146972656e+01,2.000000029802322388e-01,2.526033249239389988e-08,3.025606787332435488e-08,4.793786048889160156e+00,-1.647289656102657318e-02,-1.920688152313232422e-02
5.150000000000000000e+02,1.119999980926513672e+01,2.000000029802322388e-01,2.548884125985750870e-08,3.078537602618780511e-08,4.793778896331787109e+00,-1.647285558283329010e-02,-1.920741051435470581e-02
5.160000000000000000e+02,1.130000019073486328e+01,2.000000029802322388e-01,2.571735180367795692e-08,3.131945192080820561e-08,4.793771743774414062e+00,-1.647282764315605164e-02,-1.920832321047782898e-02
5.170000000000000000e+02,1.139999961853027344e+01,2.000000029802322388e-01,2.594586057114156574e-08,3.185828134633084119e-08,4.793765068054199219e+00,-1.647280529141426086e-02,-1.920881867408752441e-02
5.180000000000000000e+02,1.150000000000000000e+01,2.000000029802322388e-01,2.617437111496201396e-08,3.240187496089674823e-08,4.793758869171142578e+00,-1.647281646728515625e-02,-1.920968852937221527e-02
5.190000000000000000e+02,1.160000038146972656e+01,2.000000029802322388e-01,2.640288165878246218e-08,3.295022565907856915e-08,4.793752670288085938e+00,-1.647279970347881317e-02,-1.921034604310989380e-02
5.200000000000000000e+02,1.169999980926513672e+01,2.000000029802322388e-01,2.663138864988923160e-08,3.350333344087630394e-08,4.793747425079345703e+00,-1.647281274199485779e-02,-1.921077631413936615e-02
5.210000000000000000e+02,1.180000019073486328e+01,2.000000029802322388e-01,2.685989919370967982e-08,3.406120185900363140e-08,4.793742179870605469e+00,-1.647283136844635010e-02,-1.921157725155353546e-02
5.220000000000000000e+02,1.189999961853027344e+01,2.000000029802322388e-01,2.708840618481644924e-08,3.462382736074687273e-08,4.793737888336181641e+00,-1.647284626960754395e-02,-1.921195164322853088e-02
5.230000000000000000e+02,1.200000000000000000e+01,2.000000029802322388e-01,2.731691495228005806e-08,3.519121705153338553e-08,4.793733596801757812e+00,-1.647289097309112549e-02,-1.921269297599792480e-02
5.240000000000000000e+02,1.210000038146972656e+01,2.000000029802322388e-01,2.754542371974366688e-08,3.576336382593581220e-08,4.793729305267333984e+00,-1.647290028631687164e-02,-1.921321637928485870e-02
5.250000000000000000e+02,1.219999980926513672e+01,2.000000029802322388e-01,2.777393071085043630e-08,3.634026413124047394e-08,4.793725967407226562e+00,-1.647293381392955780e-02,-1.921351067721843719e-02
5.260000000000000000e+02,1.230000019073486328e+01,2.000000029802322388e-01,2.800243947831404512e-08,3.692193217830208596e-08,4.793722629547119141e+00,-1.647296920418739319e-02,-1.921417377889156342e-02
5.270000000000000000e+02,1.239999961853027344e+01,2.000000029802322388e-01,2.823094646942081454e-08,3.750835020355225424e-08,4.793719291687011719e+00,-1.647299900650978088e-02,-1.921440847218036652e-02
5.280000000000000000e+02,1.250000000000000000e+01,2.000000029802322388e-01,2.845945523688442336e-08,3.809953597055937280e-08,4.793716430664062500e+00,-1.647305302321910858e-02,-1.921501383185386658e-02
5.290000000000000000e+02,1.260000038146972656e+01,2.000000029802322388e-01,2.868796222799119278e-08,3.869547882118240523e-08,4.793714046478271484e+00,-1.647306978702545166e-02,-1.921540126204490662e-02
5.300000000000000000e+02,1.269999980926513672e+01,2.000000029802322388e-01,2.891646921909796220e-08,3.929617520270767272e-08,4.793711662292480469e+00,-1.647310890257358551e-02,-1.921556331217288971e-02
5.310000000000000000e+02,1.280000019073486328e+01,2.000000029802322388e-01,2.914497621020473161e-08,3.990163932598989049e-08,4.793709278106689453e+00,-1.647314615547657013e-02,-1.921609789133071899e-02
5.320000000000000000e+02,1.289999961853027344e+01,2.000000029802322388e-01,2.937348320131150103e-08,4.051185342746066453e-08,4.793707370758056641e+00,-1.647317595779895782e-02,-1.921620965003967285e-02
5.330000000000000000e+02,1.300000000000000000e+01,2.000000029802322388e-01,2.960199019241827045e-08,4.112683171797471005e-08,4.793705940246582031e+00,-1.647322997450828552e-02,-1.921669393777847290e-02
5.340000000000000000e+02,1.310000038146972656e+01,2.000000029802322388e-01,2.983049895988187927e-08,4.174657064481834823e-08,4.793704032897949219e+00,-1.647324487566947937e-02,-1.921696774661540985e-02
5.350000000000000000e+02,1.319999980926513672e+01,2.000000029802322388e-01,3.005900239827496989e-08,4.237106310256422148e-08,4.793702602386474609e+00,-1.647328026592731476e-02,-1.921701803803443909e-02
5.360000000000000000e+02,1.330000019073486328e+01,2.000000029802322388e-01,3.028751294209541811e-08,4.300031974935336621e-08,4.793701648712158203e+00,-1.647331379354000092e-02,-1.921745017170906067e-02
5.370000000000000000e+02,1.339999961853027344e+01,2.000000029802322388e-01,3.051601638048850873e-08,4.363432992704474600e-08,4.793700218200683594e+00,-1.647333800792694092e-02,-1.921746134757995605e-02
5.380000000000000000e+02,1.350000000000000000e+01,2.000000029802322388e-01,3.074452337159527815e-08,4.427310429377939727e-08,4.793699264526367188e+00,-1.647338643670082092e-02,-1.921785436570644379e-02
5.390000000000000000e+02,1.360000038146972656e+01,2.000000029802322388e-01,3.097303391541572637e-08,4.491663929684364120e-08,4.793698310852050781e+00,-1.647339574992656708e-02,-1.921803876757621765e-02
5.400000000000000000e+02,1.369999980926513672e+01,2.000000029802322388e-01,3.120153735380881699e-08,4.556492783081012021e-08,4.793697834014892578e+00,-1.647342741489410400e-02,-1.921800896525382996e-02
5.410000000000000000e+02,1.380000019073486328e+01,2.000000029802322388e-01,3.143004434491558641e-08,4.621797700110619189e-08,4.793696880340576172e+00,-1.647345535457134247e-02,-1.921836100518703461e-02
5.420000000000000000e+02,1.389999961853027344e+01,2.000000029802322388e-01,3.165855133602235583e-08,4.687578325501817744e-08,4.793696403503417969e+00,-1.647347398102283478e-02,-1.921830140054225922e-02
5.430000000000000000e+02,1.400000000000000000e+01,2.000000029802322388e-01,3.188705832712912525e-08,4.753835369797343446e-08,4.793695926666259766e+00,-1.647351682186126709e-02,-1.921862550079822540e-02
5.440000000000000000e+02,1.410000038146972656e+01,2.000000029802322388e-01,3.211556531823589467e-08,4.820568477725828416e-08,4.793695449829101562e+00,-1.647352240979671478e-02,-1.921874843537807465e-02
5.450000000000000000e+02,1.419999980926513672e+01,2.000000029802322388e-01,3.234407230934266408e-08,4.887776583473169012e-08,4.793694972991943359e+00,-1.647354662418365479e-02,-1.921865716576576233e-02
5.460000000000000000e+02,1.430000019073486328e+01,2.000000029802322388e-01,3.257257930044943350e-08,4.955461108124836755e-08,4.793694496154785156e+00,-1.647357083857059479e-02,-1.921895518898963928e-02
5.470000000000000000e+02,1.439999961853027344e+01,2.000000029802322388e-01,3.280108273884252412e-08,5.023621341138095886e-08,4.793694019317626953e+00,-1.647358573973178864e-02,-1.921884343028068542e-02
5.480000000000000000e+02,1.450000000000000000e+01,2.000000029802322388e-01,3.302958972994929354e-08,5.092257993055682164e-08,4.793694019317626953e+00,-1.647362485527992249e-02,-1.921911910176277161e-02
5.490000000000000000e+02,1.460000038146972656e+01,2.000000029802322388e-01,3.325809672105606296e-08,5.161370353334859828e-08,4.793693542480468750e+00,-1.647362671792507172e-02,-1.921919360756874084e-02
5.500000000000000000e+02,1.469999980926513672e+01,2.000000029802322388e-01,3.348660371216283238e-08,5.230958066704261000e-08,4.793693542480468750e+00,-1.647364906966686249e-02,-1.921905949711799622e-02
5.510000000000000000e+02,1.480000019073486328e+01,2.000000029802322388e-01,3.371511070326960180e-08,5.301022198977989319e-08,4.793693542480468750e+00,-1.647366955876350403e-02,-1.921931281685829163e-02
5.520000000000000000e+02,1.489999961853027344e+01,2.000000029802322388e-01,3.394361414166269242e-08,5.371561684341941145e-08,4.793693542480468750e+00,-1.647368445992469788e-02,-1.921915821731090546e-02
5.530000000000000000e+02,1.500000000000000000e+01,2.000000029802322388e-01,3.417212113276946184e-08,5.442577943881587998e-08,4.793693065643310547e+00,-1.647372357547283173e-02,-1.921938918530941010e-02
5.540000000000000000e+02,1.510000038146972656e+01,2.000000029802322388e-01,3.440063167658991006e-08,5.514069911782826239e-08,4.793693065643310547e+00,-1.647372357547283173e-02,-1.921941712498664856e-02
5.550000000000000000e+02,1.519999980926513672e+01,2.000000029802322388e-01,3.462913511498300068e-08,5.586037232774287986e-08,4.793693065643310547e+00,-1.647374778985977173e-02,-1.921923272311687469e-02
5.560000000000000000e+02,1.530000019073486328e+01,2.000000029802322388e-01,3.485764210608977010e-08,5.658480972670076881e-08,4.793693065643310547e+00,-1.647377200424671173e-02,-1.921943388879299164e-02
5.570000000000000000e+02,1.539999961853027344e+01,2.000000029802322388e-01,3.508614909719653951e-08,5.731400065656089282e-08,4.793692588806152344e+00,-1.647378876805305481e-02,-1.921921782195568085e-02
5.580000000000000000e+02,1.550000000000000000e+01,2.000000029802322388e-01,3.531465608830330893e-08,5.804795932817796711e-08,4.793692588806152344e+00,-1.647383160889148712e-02,-1.921937987208366394e-02
5.590000000000000000e+02,1.560000038146972656e+01,2.000000029802322388e-01,3.554316307941007835e-08,5.878667508341095527e-08,4.793692588806152344e+00,-1.647383719682693481e-02,-1.921932771801948547e-02
5.600000000000000000e+02,1.569999980926513672e+01,2.000000029802322388e-01,3.577166651780316897e-08,5.953014081683249970e-08,4.793692111968994141e+00,-1.647386699914932251e-02,-1.921905018389225006e-02
5.610000000000000000e+02,1.580000019073486328e+01,2.000000029802322388e-01,3.600017350890993839e-08,6.027837429201099440e-08,4.793691635131835938e+00,-1.647389680147171021e-02,-1.921913959085941315e-02
5.620000000000000000e+02,1.589999961853027344e+01,2.000000029802322388e-01,3.622868050001670781e-08,6.103135774537804537e-08,4.793691158294677734e+00,-1.647392101585865021e-02,-1.921879127621650696e-02
5.630000000000000000e+02,1.600000000000000000e+01,2.000000029802322388e-01,3.645718749112347723e-08,6.178911604592940421e-08,4.793690681457519531e+00,-1.647397130727767944e-02,-1.921879500150680542e-02
5.640000000000000000e+02,1.610000038146972656e+01,2.000000029802322388e-01,3.668569448223024665e-08,6.255162787738299812e-08,4.793690204620361328e+00,-1.647400483489036560e-02,-1.921855472028255463e-02
5.650000000000000000e+02,1.620000076293945312e+01,2.000000029802322388e-01,3.691420147333701607e-08,6.331889323973882711e-08,4.793689250946044922e+00,-1.647401228547096252e-02,-1.921826228499412537e-02
5.660000000000000000e+02,1.629999923706054688e+01,2.000000029802322388e-01,3.714270491173010669e-08,6.409091213299689116e-08,4.793687820434570312e+00,-1.647404953837394714e-02,-1.921748556196689606e-02
5.670000000000000000e+02,1.639999961853027344e+01,2.000000029802322388e-01,3.737121190283687611e-08,6.486769876801190549e-08,4.793686389923095703e+00,-1.647412031888961792e-02,-1.921740919351577759e-02
5.680000000000000000e+02,1.650000000000000000e+01,2.000000029802322388e-01,3.759971889394364553e-08,6.564924603935651248e-08,4.793684959411621094e+00,-1.647415198385715485e-02,-1.921683363616466522e-02
5.690000000000000000e+02,1.660000038146972656e+01,2.000000029802322388e-01,3.782822588505041494e-08,6.643555394703071215e-08,4.793682575225830078e+00,-1.647419854998588562e-02,-1.921614073216915131e-02
5.700000000000000000e+02,1.670000076293945312e+01,2.000000029802322388e-01,3.805673287615718436e-08,6.722662249103450449e-08,4.793680191040039062e+00,-1.647421158850193024e-02,-1.921530999243259430e-02
5.710000000000000000e+02,1.679999923706054688e+01,2.000000029802322388e-01,3.828523276183659618e-08,6.802243035508581670e-08,4.793677330017089844e+00,-1.647425256669521332e-02,-1.921389438211917877e-02
5.720000000000000000e+02,1.689999961853027344e+01,2.000000029802322388e-01,3.851373975294336560e-08,6.882302017174879438e-08,4.793673515319824219e+00,-1.647432148456573486e-02,-1.921305991709232330e-02
5.730000000000000000e+02,1.700000000000000000e+01,2.000000029802322388e-01,3.874224674405013502e-08,6.962836351931400714e-08,4.793668746948242188e+00,-1.647434756159782410e-02,-1.921158842742443085e-02
5.740000000000000000e+02,1.710000038146972656e+01,2.000000029802322388e-01,3.897075018244322564e-08,7.043846750320881256e-08,4.793663501739501953e+00,-1.647438295185565948e-02,-1.920983567833900452e-02
5.750000000000000000e+02,1.720000076293945312e+01,2.000000029802322388e-01,3.919925717354999506e-08,7.125333212343321065e-08,4.793656826019287109e+00,-1.647437550127506256e-02,-1.920775137841701508e-02
5.760000000000000000e+02,1.729999923706054688e+01,2.000000029802322388e-01,3.942775705922940688e-08,7.207293606370512862e-08,4.793649196624755859e+00,-1.647438481450080872e-02,-1.920485869050025940e-02
5.770000000000000000e+02,1.739999961853027344e+01,2.000000029802322388e-01,3.965626405033617630e-08,7.289732195658871206e-08,4.793640136718750000e+00,-1.647441275417804718e-02,-1.920227892696857452e-02
5.780000000000000000e+02,1.750000000000000000e+01,2.000000029802322388e-01,3.988476748872926692e-08,7.372646138037453056e-08,4.793629646301269531e+00,-1.647438108921051025e-02,-1.919875107705593109e-02
5.790000000000000000e+02,1.760000038146972656e+01,2.000000029802322388e-01,4.011327092712235753e-08,7.456036144048994174e-08,4.793616771697998047e+00,-1.647434011101722717e-02,-1.919456943869590759e-02
5.800000000000000000e+02,1.770000076293945312e+01,2.000000029802322388e-01,4.034177436551544815e-08,7.539902213693494559e-08,4.793601512908935547e+00,-1.647423766553401947e-02,-1.918961852788925171e-02
5.810000000000000000e+02,1.779999923706054688e+01,2.000000029802322388e-01,4.057027069848118117e-08,7.624242215342746931e-08,4.793583869934082031e+00,-1.647412590682506561e-02,-1.918333396315574646e-02
5.820000000000000000e+02,1.789999961853027344e+01,2.000000029802322388e-01,4.079877413687427179e-08,7.709060412253165850e-08,4.793563365936279297e+00,-1.647400110960006714e-02,-1.917673647403717041e-02
5.830000000000000000e+02,1.800000000000000000e+01,2.000000029802322388e-01,4.102727402255368361e-08,7.794354672796544037e-08,4.793539047241210938e+00,-1.647378504276275635e-02,-1.916843093931674957e-02
5.840000000000000000e+02,1.810000038146972656e+01,2.000000029802322388e-01,4.125577035551941663e-08,7.880124286430145730e-08,4.793510913848876953e+00,-1.647352427244186401e-02,-1.915855333209037781e-02
5.850000000000000000e+02,1.820000076293945312e+01,2.000000029802322388e-01,4.148427024119882844e-08,7.966369963696706691e-08,4.793477535247802734e+00,-1.647316291928291321e-02,-1.914677955210208893e-02
5.860000000000000000e+02,1.829999923706054688e+01,2.000000029802322388e-01,4.171275946873720386e-08,8.053089572968019638e-08,4.793438911437988281e+00,-1.647275313735008240e-02,-1.913227699697017670e-02
5.870000000000000000e+02,1.839999961853027344e+01,2.000000029802322388e-01,4.194125224898925808e-08,8.140287377500499133e-08,4.793393611907958984e+00,-1.647230051457881927e-02,-1.911571808159351349e-02
5.880000000000000000e+02,1.850000000000000000e+01,2.000000029802322388e-01,4.216974147652763349e-08,8.227960535123202135e-08,4.793340682983398438e+00,-1.647173427045345306e-02,-1.909524016082286835e-02
5.890000000000000000e+02,1.860000038146972656e+01,2.000000029802322388e-01,4.239823070406600891e-08,8.316110466921600164e-08,4.793279647827148438e+00,-1.647113263607025146e-02,-1.907034963369369507e-02
5.900000000000000000e+02,1.870000076293945312e+01,2.000000029802322388e-01,4.262671637889070553e-08,8.404735041267485940e-08,4.793208599090576172e+00,-1.647049747407436371e-02,-1.903985068202018738e-02
5.910000000000000000e+02,1.879999923706054688e+01,2.000000029802322388e-01,4.285519139557436574e-08,8.493834258160859463e-08,4.793126106262207031e+00,-1.646998524665832520e-02,-1.900169625878334045e-02
5.920000000000000000e+02,1.889999961853027344e+01,2.000000029802322388e-01,4.308366641225802596e-08,8.583410959772663773e-08,4.793030738830566406e+00,-1.646980084478855133e-02,-1.895480602979660034e-02
5.930000000000000000e+02,1.900000000000000000e+01,2.000000029802322388e-01,4.331213787622800737e-08,8.673463725017427350e-08,4.792921543121337891e+00,-1.647024229168891907e-02,-1.889476552605628967e-02
5.940000000000000000e+02,1.910000038146972656e+01,2.000000029802322388e-01,4.354060223477063118e-08,8.763991132809678675e-08,4.792796611785888672e+00,-1.647209748625755310e-02,-1.881723478436470032e-02
5.950000000000000000e+02,1.920000076293945312e+01,2.000000029802322388e-01,4.376905948788589740e-08,8.854994604234889266e-08,4.792656898498535156e+00,-1.647674478590488434e-02,-1.871511526405811310e-02
5.960000000000000000e+02,1.929999923706054688e+01,2.000000029802322388e-01,4.399750608286012721e-08,8.946471297122116084e-08,4.792505741119384766e+00,-1.648714952170848846e-02,-1.857704669237136841e-02
5.970000000000000000e+02,1.939999961853027344e+01,2.000000029802322388e-01,4.422594912512067822e-08,9.038424053642302169e-08,4.792354106903076172e+00,-1.650947332382202148e-02,-1.838694512844085693e-02
5.980000000000000000e+02,1.950000000000000000e+01,2.000000029802322388e-01,4.445438861466755043e-08,9.130851452709976002e-08,4.792230606079101562e+00,-1.655734330415725708e-02,-1.811618916690349579e-02
5.990000000000000000e+02,1.960000038146972656e+01,2.000000029802322388e-01,4.468282810421442264e-08,9.223751362696930300e-08,4.792205810546875000e+00,-1.666272431612014771e-02,-1.772367022931575775e-02
6.000000000000000000e+02,1.970000076293945312e+01,2.000000029802322388e-01,4.491128180461601005e-08,9.317122362517693546e-08,4.792443275451660156e+00,-1.689570955932140350e-02,-1.716645061969757080e-02
6.010000000000000000e+02,1.979999923706054688e+01,2.000000029802322388e-01,4.513977813758174307e-08,9.410955925659436616e-08,4.793279647827148438e+00,-1.736535131931304932e-02,-1.651263423264026642e-02
6.020000000000000000e+02,1.989999961853027344e+01,2.000000029802322388e-01,4.536834907753473090e-08,9.505244236152066151e-08,4.794789791107177734e+00,-1.738004572689533234e-02,-1.673847623169422150e-02
6.030000000000000000e+02,2.000000000000000000e+01,2.000000029802322388e-01,4.559685251592782151e-08,9.599995109965675510e-08,4.796545028686523438e+00,-6.642743479460477829e-03,-1.862419024109840393e-02
6.040000000000000000e+02,0.000000000000000000e+00,3.000000119209289551e-01,2.769346470272626298e-37,1.038441419505831661e-37,4.923846721649169922e+00,1.477154016494750977e+00,8.461507558822631836e-01
6.050000000000000000e+02,1.000000014901161194e-01,3.000000119209289551e-01,2.133666854309268501e-10,1.047615258431555674e-10,4.771498203277587891e+00,9.693261981010437012e-01,7.142568230628967285e-01
6.060000000000000000e+02,2.000000029802322388e-01,3.000000119209289551e-01,4.372612272263154409e-10,2.197858700592192349e-10,4.864498615264892578e+00,5.423784852027893066e-01,6.519957184791564941e-01
6.070000000000000000e+02,3.000000119209289551e-01,3.000000119209289551e-01,6.681488695647885834e-10,3.343103294195515218e-10,4.935715198516845703e+00,2.902504503726959229e-01,5.145328044891357422e-01
6.080000000000000000e+02,4.000000059604644775e-01,3.000000119209289551e-01,9.014385904393407145e-10,4.423650612483953637e-10,4.954113006591796875e+00,1.834294050931930542e-01,3.819176554679870605e-01
6.090000000000000000e+02,5.000000000000000000e-01,3.000000119209289551e-01,1.133585336710041247e-09,5.429290905745176588e-10,4.911312580108642578e+00,1.207693293690681458e-01,2.736264467239379883e-01
6.100000000000000000e+02,6.000000238418579102e-01,3.000000119209289551e-01,1.363466894943599073e-09,6.373424565886409709e-10,4.852283477783203125e+00,8.256937563419342041e-02,1.940994709730148315e-01
6.110000000000000000e+02,6.999999880790710449e-01,3.000000119209289551e-01,1.590954701313762598e-09,7.271678814646520550e-10,4.794422149658203125e+00,5.725830793380737305e-02,1.361518502235412598e-01
6.120000000000000000e+02,8.000000119209289551e-01,3.000000119209289551e-01,1.816302774848566060e-09,8.138343887686971811e-10,4.744247436523437500e+00,3.979680314660072327e-02,9.380016475915908813e-02
6.130000000000000000e+02,8.999999761581420898e-01,3.000000119209289551e-01,2.039866275893587044e-09,8.985355792745508552e-10,4.703027725219726562e+00,2.729823254048824310e-02,6.248307228088378906e-02
6.140000000000000000e+02,1.000000000000000000e+00,3.000000119209289551e-01,2.261997922303748965e-09,9.822528346248304842e-10,4.670188903808593750e+00,1.809457689523696899e-02,3.905005753040313721e-02
6.150000000000000000e+02,1.100000023841857910e+00,3.000000119209289551e-01,2.483009575726669027e-09,1.065791899179657776e-09,4.644589424133300781e+00,1.115275826305150986e-02,2.132561616599559784e-02
6.160000000000000000e+02,1.200000047683715820e+00,3.000000119209289551e-01,2.703165913331417869e-09,1.149819683909925061e-09,4.625027656555175781e+00,5.810861010104417801e-03,7.799819111824035645e-03
6.170000000000000000e+02,1.299999952316284180e+00,3.000000119209289551e-01,2.922686093143056496e-09,1.234892299528667081e-09,4.610416889190673828e+00,1.629636972211301327e-03,-2.590992022305727005e-03
6.180000000000000000e+02,1.399999976158142090e+00,3.000000119209289551e-01,3.141749749246969259e-09,1.321478482196880577e-09,4.599828720092773438e+00,-1.690759556367993355e-03,-1.060816459357738495e-02
6.190000000000000000e+02,1.500000000000000000e+00,3.000000119209289551e-01,3.360502320859382053e-09,1.409976579935801055e-09,4.592493534088134766e+00,-4.360246937721967697e-03,-1.680542156100273132e-02
6.200000000000000000e+02,1.600000023841857910e+00,3.000000119209289551e-01,3.579061269576300219e-09,1.500727542236290901e-09,4.587778568267822266e+00,-6.529077887535095215e-03,-2.159179747104644775e-02
6.210000000000000000e+02,1.700000047683715820e+00,3.000000119209289551e-01,3.797521408444026747e-09,1.594025689222178244e-09,4.585166931152343750e+00,-8.306951262056827545e-03,-2.527379058301448822e-02
6.220000000000000000e+02,1.799999952316284180e+00,3.000000119209289551e-01,4.015957788539026296e-09,1.690126150144521944e-09,4.584238052368164062e+00,-9.775381535291671753e-03,-2.808410674333572388e-02
6.230000000000000000e+02,1.899999976158142090e+00,3.000000119209289551e-01,4.234431472127653251e-09,1.789252301875876583e-09,4.584647655487060547e+00,-1.099592167884111404e-02,-3.020167537033557892e-02
6.240000000000000000e+02,2.000000000000000000e+00,3.000000119209289551e-01,4.452989532666151717e-09,1.891599543668576189e-09,4.586114883422851562e+00,-1.201571803539991379e-02,-3.176548331975936890e-02
6.250000000000000000e+02,2.099999904632568359e+00,3.000000119209289551e-01,4.671668829558939251e-09,1.997340071113740123e-09,4.588409423828125000e+00,-1.287136692553758621e-02,-3.288469463586807251e-02
6.260000000000000000e+02,2.200000047683715820e+00,3.000000119209289551e-01,4.890498672693865956e-09,2.106626650899556807e-09,4.591341972351074219e+00,-1.359162852168083191e-02,-3.364590555429458618e-02
6.270000000000000000e+02,2.299999952316284180e+00,3.000000119209289551e-01,5.109499490174584935e-09,2.219593620012005886e-09,4.594758033752441406e+00,-1.419933699071407318e-02,-3.411815688014030457e-02
6.280000000000000000e+02,2.400000095367431641e+00,3.000000119209289551e-01,5.328687713301860640e-09,2.336361770716166575e-09,4.598529338836669922e+00,-1.471283752471208572e-02,-3.435730561614036560e-02
6.290000000000000000e+02,2.500000000000000000e+00,3.000000119209289551e-01,5.548072667949099923e-09,2.457037462377797965e-09,4.602551937103271484e+00,-1.514698471873998642e-02,-3.440839424729347229e-02
6.300000000000000000e+02,2.599999904632568359e+00,3.000000119209289551e-01,5.767662791811289935e-09,2.581716618266227670e-09,4.606738567352294922e+00,-1.551393885165452957e-02,-3.430842980742454529e-02
6.310000000000000000e+02,2.700000047683715820e+00,3.000000119209289551e-01,5.987461637602109477e-09,2.710484947598956751e-09,4.611019134521484375e+00,-1.582372188568115234e-02,-3.408769518136978149e-02
6.320000000000000000e+02,2.799999952316284180e+00,3.000000119209289551e-01,6.207468761232348697e-09,2.843417945541659719e-09,4.615335941314697266e+00,-1.608465798199176788e-02,-3.377104178071022034e-02
6.330000000000000000e+02,2.900000095367431641e+00,3.000000119209289551e-01,6.427685050880427298e-09,2.980585112055678110e-09,4.619641780853271484e+00,-1.630372740328311920e-02,-3.337930887937545776e-02
6.340000000000000000e+02,3.000000000000000000e+00,3.000000119209289551e-01,6.648106065654246777e-09,3.122046843273551531e-09,4.623898029327392578e+00,-1.648680120706558228e-02,-3.292952105402946472e-02
6.350000000000000000e+02,3.099999904632568359e+00,3.000000119209289551e-01,6.868728252840128334e-09,3.267858428301906315e-09,4.628074645996093750e+00,-1.663887314498424530e-02,-3.243611380457878113e-02
6.360000000000000000e+02,3.200000047683715820e+00,3.000000119209289551e-01,7.089546283367553769e-09,3.418069605132245670e-09,4.632147789001464844e+00,-1.676419377326965332e-02,-3.191103413701057434e-02
6.370000000000000000e+02,3.299999952316284180e+00,3.000000119209289551e-01,7.310553495898375331e-09,3.572723894507134901e-09,4.636097431182861328e+00,-1.686640642583370209e-02,-3.136411309242248535e-02
6.380000000000000000e+02,3.400000095367431641e+00,3.000000119209289551e-01,7.531744117272864969e-09,3.731861486500065439e-09,4.639909744262695312e+00,-1.694866269826889038e-02,-3.080385923385620117e-02
6.390000000000000000e+02,3.500000000000000000e+00,3.000000119209289551e-01,7.753109265706825681e-09,3.895516798024800664e-09,4.643573760986328125e+00,-1.701367460191249847e-02,-3.023702464997768402e-02
6.400000000000000000e+02,3.599999904632568359e+00,3.000000119209289551e-01,7.974642279862109717e-09,4.063722691682869481e-09,4.647081851959228516e+00,-1.706381328403949738e-02,-2.966951765120029449e-02
6.410000000000000000e+02,3.700000047683715820e+00,3.000000119209289551e-01,8.196336054311359476e-09,4.236506701005282594e-09,4.650429725646972656e+00,-1.710113324224948883e-02,-2.910611033439636230e-02
6.420000000000000000e+02,3.799999952316284180e+00,3.000000119209289551e-01,8.418181707270377956e-09,4.413894139077001455e-09,4.653614044189453125e+00,-1.712743379175662994e-02,-2.855060063302516937e-02
6.430000000000000000e+02,3.900000095367431641e+00,3.000000119209289551e-01,8.640171245133387856e-09,4.595908098536938269e-09,4.656633853912353516e+00,-1.714429073035717010e-02,-2.800638042390346527e-02
6.440000000000000000e+02,4.000000000000000000e+00,3.000000119209289551e-01,8.862296674294611876e-09,4.782567675221116588e-09,4.659490108489990234e+00,-1.715308427810668945e-02,-2.747585624456405640e-02
6.450000000000000000e+02,4.099999904632568359e+00,3.000000119209289551e-01,9.084550001148272713e-09,4.973891520876350114e-09,4.662185192108154297e+00,-1.715503446757793427e-02,-2.696122787892818451e-02
6.460000000000000000e+02,4.199999809265136719e+00,3.000000119209289551e-01,9.306924120267012768e-09,5.169894734535773750e-09,4.664721488952636719e+00,-1.715120486915111542e-02,-2.646406367421150208e-02
6.470000000000000000e+02,4.300000190734863281e+00,3.000000119209289551e-01,9.529413702580313839e-09,5.370592415232522399e-09,4.667103290557861328e+00,-1.714253425598144531e-02,-2.598566189408302307e-02
6.480000000000000000e+02,4.400000095367431641e+00,3.000000119209289551e-01,9.752007201768719824e-09,5.575994777018422610e-09,4.669334411621093750e+00,-1.712983660399913788e-02,-2.552664093673229218e-02
6.490000000000000000e+02,4.500000000000000000e+00,3.000000119209289551e-01,9.974700176940132224e-09,5.786113810302140337e-09,4.671421051025390625e+00,-1.711384952068328857e-02,-2.508785761892795563e-02
6.500000000000000000e+02,4.599999904632568359e+00,3.000000119209289551e-01,1.019748552266719344e-08,6.000958840957082430e-09,4.673367500305175781e+00,-1.709520444273948669e-02,-2.466957643628120422e-02
6.510000000000000000e+02,4.699999809265136719e+00,3.000000119209289551e-01,1.042035702170096556e-08,6.220538306678236040e-09,4.675180435180664062e+00,-1.707445643842220306e-02,-2.427193522453308105e-02
6.520000000000000000e+02,4.800000190734863281e+00,3.000000119209289551e-01,1.064330934497093040e-08,6.444860201071378469e-09,4.676865577697753906e+00,-1.705208793282508850e-02,-2.389497868716716766e-02
6.530000000000000000e+02,4.900000095367431641e+00,3.000000119209289551e-01,1.086633449887131064e-08,6.673928520939398368e-09,4.678428173065185547e+00,-1.702851988375186920e-02,-2.353825047612190247e-02
6.540000000000000000e+02,5.000000000000000000e+00,3.000000119209289551e-01,1.108942804251000780e-08,6.907749483531233636e-09,4.679875373840332031e+00,-1.700412482023239136e-02,-2.320169843733310699e-02
6.550000000000000000e+02,5.099999904632568359e+00,3.000000119209289551e-01,1.131258553499492336e-08,7.146327973828192626e-09,4.681212425231933594e+00,-1.697922311723232269e-02,-2.288481779396533966e-02
6.560000000000000000e+02,5.199999809265136719e+00,3.000000119209289551e-01,1.153580075907711944e-08,7.389667988633163986e-09,4.682446002960205078e+00,-1.695408485829830170e-02,-2.258710190653800964e-02
6.570000000000000000e+02,5.300000190734863281e+00,3.000000119209289551e-01,1.175907105022133692e-08,7.637773080659826519e-09,4.683581829071044922e+00,-1.692893914878368378e-02,-2.230805903673171997e-02
6.580000000000000000e+02,5.400000095367431641e+00,3.000000119209289551e-01,1.198239019117863791e-08,7.890644582175809774e-09,4.684626102447509766e+00,-1.690398342907428741e-02,-2.204679325222969055e-02
6.590000000000000000e+02,5.500000000000000000e+00,3.000000119209289551e-01,1.220575374105692390e-08,8.148285601805582701e-09,4.685583591461181641e+00,-1.687938906252384186e-02,-2.180289290845394135e-02
6.600000000000000000e+02,5.599999904632568359e+00,3.000000119209289551e-01,1.242915903532093580e-08,8.410697915905984701e-09,4.686460494995117188e+00,-1.685529947280883789e-02,-2.157557383179664612e-02
6.610000000000000000e+02,5.699999809265136719e+00,3.000000119209289551e-01,1.265260252125699481e-08,8.677882412655435473e-09,4.687261581420898438e+00,-1.683182269334793091e-02,-2.136410772800445557e-02
6.620000000000000000e+02,5.800000190734863281e+00,3.000000119209289551e-01,1.287608153432984182e-08,8.949841756589194119e-09,4.687992572784423828e+00,-1.680904813110828400e-02,-2.116784639656543732e-02
6.630000000000000000e+02,5.900000095367431641e+00,3.000000119209289551e-01,1.309959074546895863e-08,9.226574171350421238e-09,4.688657760620117188e+00,-1.678705215454101562e-02,-2.098577469587326050e-02
6.640000000000000000e+02,6.000000000000000000e+00,3.000000119209289551e-01,1.332312749013908615e-08,9.508081433295956231e-09,4.689262390136718750e+00,-1.676589064300060272e-02,-2.081741951406002045e-02
6.650000000000000000e+02,6.099999904632568359e+00,3.000000119209289551e-01,1.354669088016180467e-08,9.794363542425799096e-09,4.689810752868652344e+00,-1.674561016261577606e-02,-2.066195756196975708e-02
6.660000000000000000e+02,6.199999809265136719e+00,3.000000119209289551e-01,1.377027825100185510e-08,1.008542138691836954e-08,4.690306186676025391e+00,-1.672623306512832642e-02,-2.051866799592971802e-02
6.670000000000000000e+02,6.300000190734863281e+00,3.000000119209289551e-01,1.399388693812397833e-08,1.038125674313050695e-08,4.690753936767578125e+00,-1.670777425169944763e-02,-2.038692310452461243e-02
6.680000000000000000e+02,6.400000095367431641e+00,3.000000119209289551e-01,1.421751338881449556e-08,1.068186517017011283e-08,4.691157341003417969e+00,-1.669024303555488586e-02,-2.026576176285743713e-02
6.690000000000000000e+02,6.500000000000000000e+00,3.000000119209289551e-01,1.444115671489498709e-08,1.098724844439402659e-08,4.691519260406494141e+00,-1.667363941669464111e-02,-2.015477977693080902e-02
6.700000000000000000e+02,6.599999904632568359e+00,3.000000119209289551e-01,1.466481602818703323e-08,1.129740656580224822e-08,4.691843986511230469e+00,-1.665795780718326569e-02,-2.005324140191078186e-02
6.710000000000000000e+02,6.699999809265136719e+00,3.000000119209289551e-01,1.488848866415537486e-08,1.161233864621635803e-08,4.692134380340576172e+00,-1.664318144321441650e-02,-1.996052078902721405e-02
6.720000000000000000e+02,6.800000190734863281e+00,3.000000119209289551e-01,1.511217462280001200e-08,1.193204557381477571e-08,4.692392826080322266e+00,-1.662928983569145203e-02,-1.987610384821891785e-02
6.730000000000000000e+02,6.900000095367431641e+00,3.000000119209289551e-01,1.533586946322884614e-08,1.225652468406224216e-08,4.692623138427734375e+00,-1.661625877022743225e-02,-1.979914680123329163e-02
6.740000000000000000e+02,7.000000000000000000e+00,3.000000119209289551e-01,1.555957496179871669e-08,1.258577597695875738e-08,4.692826747894287109e+00,-1.660406403243541718e-02,-1.972937025129795074e-02
6.750000000000000000e+02,7.099999904632568359e+00,3.000000119209289551e-01,1.578328756579594483e-08,1.291980034068274108e-08,4.693006515502929688e+00,-1.659267954528331757e-02,-1.966616511344909668e-02
6.760000000000000000e+02,7.199999809265136719e+00,3.000000119209289551e-01,1.600700905157736997e-08,1.325859511069893415e-08,4.693164348602294922e+00,-1.658207178115844727e-02,-1.960903964936733246e-02
6.770000000000000000e+02,7.300000190734863281e+00,3.000000119209289551e-01,1.623073586642931332e-08,1.360216206336417599e-08,4.693303108215332031e+00,-1.657220348715782166e-02,-1.955761015415191650e-02
6.780000000000000000e+02,7.400000095367431641e+00,3.000000119209289551e-01,1.645446978670861427e-08,1.395049764596478781e-08,4.693423748016357422e+00,-1.656304299831390381e-02,-1.951116882264614105e-02
6.790000000000000000e+02,7.500000000000000000e+00,3.000000119209289551e-01,1.667820725970159401e-08,1.430360363485760899e-08,4.693528652191162109e+00,-1.655456051230430603e-02,-1.946956478059291840e-02
6.800000000000000000e+02,7.599999904632568359e+00,3.000000119209289551e-01,1.690194828540825256e-08,1.466147736550738045e-08,4.693619251251220703e+00,-1.654672063887119293e-02,-1.943232491612434387e-02
6.810000000000000000e+02,7.699999809265136719e+00,3.000000119209289551e-01,1.712569464018542931e-08,1.502412061427094159e-08,4.693696498870849609e+00,-1.653948798775672913e-02,-1.939908228814601898e-02
6.820000000000000000e+02,7.800000190734863281e+00,3.000000119209289551e-01,1.734944454767628486e-08,1.539153160479145299e-08,4.693762779235839844e+00,-1.653282530605792999e-02,-1.936957985162734985e-02
6.830000000000000000e+02,7.900000095367431641e+00,3.000000119209289551e-01,1.757319445516714040e-08,1.576371033706891467e-08,4.693818092346191406e+00,-1.652670279145240784e-02,-1.934323087334632874e-02
6.840000000000000000e+02,8.000000000000000000e+00,3.000000119209289551e-01,1.779694791537167475e-08,1.614065503474648722e-08,4.693864822387695312e+00,-1.652108691632747650e-02,-1.932000555098056793e-02
6.850000000000000000e+02,8.100000381469726562e+00,3.000000119209289551e-01,1.802070492828988790e-08,1.652236569782417064e-08,4.693902969360351562e+00,-1.651594601571559906e-02,-1.929963193833827972e-02
6.860000000000000000e+02,8.199999809265136719e+00,3.000000119209289551e-01,1.824446016485126165e-08,1.690884054994512553e-08,4.693933963775634766e+00,-1.651124842464923859e-02,-1.928148604929447174e-02
6.870000000000000000e+02,8.300000190734863281e+00,3.000000119209289551e-01,1.846821717776947480e-08,1.730008314382303070e-08,4.693958759307861328e+00,-1.650696620345115662e-02,-1.926596835255622864e-02
6.880000000000000000e+02,8.399999618530273438e+00,3.000000119209289551e-01,1.869197596704452735e-08,1.769608815038736793e-08,4.693977832794189453e+00,-1.650307327508926392e-02,-1.925213076174259186e-02
6.890000000000000000e+02,8.500000000000000000e+00,3.000000119209289551e-01,1.891573475631957990e-08,1.809685912235181604e-08,4.693992137908935547e+00,-1.649953424930572510e-02,-1.924050040543079376e-02
6.900000000000000000e+02,8.600000381469726562e+00,3.000000119209289551e-01,1.913949532195147185e-08,1.850239605971637502e-08,4.694002628326416016e+00,-1.649632863700389862e-02,-1.923034340143203735e-02
6.910000000000000000e+02,8.699999809265136719e+00,3.000000119209289551e-01,1.936325411122652440e-08,1.891269185705368727e-08,4.694008827209472656e+00,-1.649342849850654602e-02,-1.922148466110229492e-02
6.920000000000000000e+02,8.800000190734863281e+00,3.000000119209289551e-01,1.958701467685841635e-08,1.932775361979111040e-08,4.694012165069580078e+00,-1.649081520736217499e-02,-1.921431720256805420e-02
6.930000000000000000e+02,8.899999618530273438e+00,3.000000119209289551e-01,1.981077346613346890e-08,1.974757424250128679e-08,4.694012641906738281e+00,-1.648846827447414398e-02,-1.920796744525432587e-02
6.940000000000000000e+02,9.000000000000000000e+00,3.000000119209289551e-01,2.003453403176536085e-08,2.017216260696841346e-08,4.694011211395263672e+00,-1.648635789752006531e-02,-1.920303329825401306e-02
6.950000000000000000e+02,9.100000381469726562e+00,3.000000119209289551e-01,2.025829459739725280e-08,2.060151338412197219e-08,4.694007396697998047e+00,-1.648446731269359589e-02,-1.919884793460369110e-02
6.960000000000000000e+02,9.199999809265136719e+00,3.000000119209289551e-01,2.048205338667230535e-08,2.103562124489144480e-08,4.694002151489257812e+00,-1.648277975618839264e-02,-1.919529959559440613e-02
6.970000000000000000e+02,9.300000190734863281e+00,3.000000119209289551e-01,2.070581217594735790e-08,2.147449329470418888e-08,4.693995952606201172e+00,-1.648127846419811249e-02,-1.919283717870712280e-02
6.980000000000000000e+02,9.399999618530273438e+00,3.000000119209289551e-01,2.092957096522241045e-08,2.191812420448968624e-08,4.693988323211669922e+00,-1.647995226085186005e-02,-1.919064484536647797e-02
6.990000000000000000e+02,9.500000000000000000e+00,3.000000119209289551e-01,2.115332975449746300e-08,2.236652107967529446e-08,4.693980216979980469e+00,-1.647877506911754608e-02,-1.918936893343925476e-02
7.000000000000000000e+02,9.600000381469726562e+00,3.000000119209289551e-01,2.137708854377251555e-08,2.281967859119049535e-08,4.693971157073974609e+00,-1.647773757576942444e-02,-1.918838731944561005e-02
7.010000000000000000e+02,9.699999809265136719e+00,3.000000119209289551e-01,2.160084378033388930e-08,2.327759140996477072e-08,4.693961620330810547e+00,-1.647682487964630127e-02,-1.918763667345046997e-02
7.020000000000000000e+02,9.800000190734863281e+00,3.000000119209289551e-01,2.182460256960894185e-08,2.374027019413915696e-08,4.693952083587646484e+00,-1.647603139281272888e-02,-1.918760128319263458e-02
7.030000000000000000e+02,9.899999618530273438e+00,3.000000119209289551e-01,2.204835780617031560e-08,2.420770428557261766e-08,4.693942070007324219e+00,-1.647534407675266266e-02,-1.918750442564487457e-02
7.040000000000000000e+02,1.000000000000000000e+01,3.000000119209289551e-01,2.227211304273168935e-08,2.467990434240618924e-08,4.693932533264160156e+00,-1.647474616765975952e-02,-1.918802410364151001e-02
7.050000000000000000e+02,1.010000038146972656e+01,3.000000119209289551e-01,2.249587005564990250e-08,2.515686325921251409e-08,4.693922519683837891e+00,-1.647423394024372101e-02,-1.918857730925083160e-02
7.060000000000000000e+02,1.019999980926513672e+01,3.000000119209289551e-01,2.271962351585443685e-08,2.563857748327791342e-08,4.693912506103515625e+00,-1.647379249334335327e-02,-1.918910816311836243e-02
7.070000000000000000e+02,1.030000019073486328e+01,3.000000119209289551e-01,2.294337875241581060e-08,2.612505767274342361e-08,4.693902969360351562e+00,-1.647342182695865631e-02,-1.919016055762767792e-02
7.080000000000000000e+02,1.039999961853027344e+01,3.000000119209289551e-01,2.316713221262034494e-08,2.661629316946800827e-08,4.693893432617187500e+00,-1.647311635315418243e-02,-1.919094286859035492e-02
7.090000000000000000e+02,1.050000000000000000e+01,3.000000119209289551e-01,2.339088744918171869e-08,2.711229107887902501e-08,4.693884372711181641e+00,-1.647285930812358856e-02,-1.919219642877578735e-02
7.100000000000000000e+02,1.060000038146972656e+01,3.000000119209289551e-01,2.361464090938625304e-08,2.761304962461963441e-08,4.693875789642333984e+00,-1.647264882922172546e-02,-1.919332146644592285e-02
7.110000000000000000e+02,1.069999980926513672e+01,3.000000119209289551e-01,2.383839259323394799e-08,2.811856347761931829e-08,4.693867206573486328e+00,-1.647247746586799622e-02,-1.919429935514926910e-02
7.120000000000000000e+02,1.080000019073486328e+01,3.000000119209289551e-01,2.406214605343848234e-08,2.862884151966227364e-08,4.693859100341796875e+00,-1.647234521806240082e-02,-1.919568702578544617e-02
7.130000000000000000e+02,1.089999961853027344e+01,3.000000119209289551e-01,2.428589596092933789e-08,2.914387486896430346e-08,4.693851470947265625e+00,-1.647225022315979004e-02,-1.919670589268207550e-02
7.140000000000000000e+02,1.100000000000000000e+01,3.000000119209289551e-01,2.450964942113387224e-08,2.966367063095276535e-08,4.693843841552734375e+00,-1.647217944264411926e-02,-1.919811218976974487e-02
7.150000000000000000e+02,1.110000038146972656e+01,3.000000119209289551e-01,2.473340110498156719e-08,3.018822880562765931e-08,4.693837165832519531e+00,-1.647213101387023926e-02,-1.919931545853614807e-02
7.160000000000000000e+02,1.119999980926513672e+01,3.000000119209289551e-01,2.495715101247242274e-08,3.071753695849110954e-08,4.693830490112304688e+00,-1.647210121154785156e-02,-1.920031011104583740e-02
7.170000000000000000e+02,1.130000019073486328e+01,3.000000119209289551e-01,2.518090269632011768e-08,3.125161285311151005e-08,4.693824291229248047e+00,-1.647209189832210541e-02,-1.920166052877902985e-02
7.180000000000000000e+02,1.139999961853027344e+01,3.000000119209289551e-01,2.540465082745413383e-08,3.179044227863414562e-08,4.693818092346191406e+00,-1.647210121154785156e-02,-1.920259930193424225e-02
7.190000000000000000e+02,1.150000000000000000e+01,3.000000119209289551e-01,2.562840251130182878e-08,3.233403589320005267e-08,4.693812847137451172e+00,-1.647212170064449310e-02,-1.920388638973236084e-02
7.200000000000000000e+02,1.160000038146972656e+01,3.000000119209289551e-01,2.585215419514952373e-08,3.288238659138187359e-08,4.693807601928710938e+00,-1.647214964032173157e-02,-1.920494250953197479e-02
7.210000000000000000e+02,1.169999980926513672e+01,3.000000119209289551e-01,2.607590232628353988e-08,3.343549437317960837e-08,4.693802833557128906e+00,-1.647218503057956696e-02,-1.920576579868793488e-02
7.220000000000000000e+02,1.180000019073486328e+01,3.000000119209289551e-01,2.629965223377439543e-08,3.399336279130693583e-08,4.693798065185546875e+00,-1.647223159670829773e-02,-1.920692622661590576e-02
7.230000000000000000e+02,1.189999961853027344e+01,3.000000119209289551e-01,2.652340036490841158e-08,3.455598829305017716e-08,4.693794250488281250e+00,-1.647228561341762543e-02,-1.920765824615955353e-02
7.240000000000000000e+02,1.200000000000000000e+01,3.000000119209289551e-01,2.674715027239926712e-08,3.512337798383668996e-08,4.693789958953857422e+00,-1.647234149277210236e-02,-1.920873112976551056e-02
7.250000000000000000e+02,1.210000038146972656e+01,3.000000119209289551e-01,2.697090017989012267e-08,3.569552475823911664e-08,4.693786621093750000e+00,-1.647239923477172852e-02,-1.920956373214721680e-02
7.260000000000000000e+02,1.219999980926513672e+01,3.000000119209289551e-01,2.719464831102413882e-08,3.627242861625745718e-08,4.693783283233642578e+00,-1.647245511412620544e-02,-1.921016164124011993e-02
7.270000000000000000e+02,1.230000019073486328e+01,3.000000119209289551e-01,2.741839644215815497e-08,3.685409311060539039e-08,4.693780422210693359e+00,-1.647251844406127930e-02,-1.921109296381473541e-02
7.280000000000000000e+02,1.239999961853027344e+01,3.000000119209289551e-01,2.764214457329217112e-08,3.744051468856923748e-08,4.693777561187744141e+00,-1.647258363664150238e-02,-1.921159960329532623e-02
7.290000000000000000e+02,1.250000000000000000e+01,3.000000119209289551e-01,2.786589448078302667e-08,3.803169690286267723e-08,4.693774700164794922e+00,-1.647264696657657623e-02,-1.921244524419307709e-02
7.300000000000000000e+02,1.260000038146972656e+01,3.000000119209289551e-01,2.808964261191704281e-08,3.862764330619938846e-08,4.693772315979003906e+00,-1.647270843386650085e-02,-1.921305991709232330e-02
7.310000000000000000e+02,1.269999980926513672e+01,3.000000119209289551e-01,2.831338896669421956e-08,3.922833968772465596e-08,4.693770408630371094e+00,-1.647276617586612701e-02,-1.921343989670276642e-02
7.320000000000000000e+02,1.280000019073486328e+01,3.000000119209289551e-01,2.853713887418507511e-08,3.983380025829319493e-08,4.693768501281738281e+00,-1.647282578051090240e-02,-1.921416446566581726e-02
7.330000000000000000e+02,1.289999961853027344e+01,3.000000119209289551e-01,2.876088522896225186e-08,4.044401435976396897e-08,4.693766593933105469e+00,-1.647288724780082703e-02,-1.921446807682514191e-02
7.340000000000000000e+02,1.300000000000000000e+01,3.000000119209289551e-01,2.898463336009626801e-08,4.105899620299169328e-08,4.693764686584472656e+00,-1.647294312715530396e-02,-1.921512186527252197e-02
7.350000000000000000e+02,1.310000038146972656e+01,3.000000119209289551e-01,2.920838326758712356e-08,4.167873512983533146e-08,4.693763256072998047e+00,-1.647299714386463165e-02,-1.921554841101169586e-02
7.360000000000000000e+02,1.319999980926513672e+01,3.000000119209289551e-01,2.943212962236430030e-08,4.230322403486752592e-08,4.693761825561523438e+00,-1.647304557263851166e-02,-1.921575330197811127e-02
7.370000000000000000e+02,1.330000019073486328e+01,3.000000119209289551e-01,2.965587775349831645e-08,4.293248068165667064e-08,4.693760871887207031e+00,-1.647309586405754089e-02,-1.921630837023258209e-02
7.380000000000000000e+02,1.339999961853027344e+01,3.000000119209289551e-01,2.987962588463233260e-08,4.356649085934805044e-08,4.693759918212890625e+00,-1.647314615547657013e-02,-1.921645365655422211e-02
7.390000000000000000e+02,1.350000000000000000e+01,3.000000119209289551e-01,3.010337223940950935e-08,4.420526877879638050e-08,4.693758964538574219e+00,-1.647319272160530090e-02,-1.921695470809936523e-02
7.400000000000000000e+02,1.360000038146972656e+01,3.000000119209289551e-01,3.032712214690036490e-08,4.484880022914694564e-08,4.693758010864257812e+00,-1.647323556244373322e-02,-1.921724155545234680e-02
7.410000000000000000e+02,1.369999980926513672e+01,3.000000119209289551e-01,3.055086850167754164e-08,4.549708876311342465e-08,4.693757057189941406e+00,-1.647327281534671783e-02,-1.921731233596801758e-02
7.420000000000000000e+02,1.380000019073486328e+01,3.000000119209289551e-01,3.077461485645471839e-08,4.615014148612317513e-08,4.693756580352783203e+00,-1.647331193089485168e-02,-1.921774260699748993e-02
7.430000000000000000e+02,1.389999961853027344e+01,3.000000119209289551e-01,3.099836121123189514e-08,4.680794418732148188e-08,4.693755626678466797e+00,-1.647335290908813477e-02,-1.921777054667472839e-02
7.440000000000000000e+02,1.400000000000000000e+01,3.000000119209289551e-01,3.122211111872275069e-08,4.747051463027673890e-08,4.693755149841308594e+00,-1.647338829934597015e-02,-1.921816170215606689e-02
7.450000000000000000e+02,1.410000038146972656e+01,3.000000119209289551e-01,3.144585747349992744e-08,4.813784570956158859e-08,4.693754673004150391e+00,-1.647342182695865631e-02,-1.921834610402584076e-02
7.460000000000000000e+02,1.419999980926513672e+01,3.000000119209289551e-01,3.166960382827710418e-08,4.880992676703499455e-08,4.693754196166992188e+00,-1.647344976663589478e-02,-1.921832002699375153e-02
7.470000000000000000e+02,1.430000019073486328e+01,3.000000119209289551e-01,3.189335373576795973e-08,4.948677556626535079e-08,4.693754196166992188e+00,-1.647348143160343170e-02,-1.921865902841091156e-02
7.480000000000000000e+02,1.439999961853027344e+01,3.000000119209289551e-01,3.211710009054513648e-08,5.016837434368426329e-08,4.693753719329833984e+00,-1.647351495921611786e-02,-1.921860314905643463e-02
7.490000000000000000e+02,1.450000000000000000e+01,3.000000119209289551e-01,3.234084644532231323e-08,5.085474086286012607e-08,4.693753242492675781e+00,-1.647354476153850555e-02,-1.921891421079635620e-02
7.500000000000000000e+02,1.460000038146972656e+01,3.000000119209289551e-01,3.256459635281316878e-08,5.154586446565190272e-08,4.693753242492675781e+00,-1.647357270121574402e-02,-1.921902038156986237e-02
7.510000000000000000e+02,1.469999980926513672e+01,3.000000119209289551e-01,3.278834270759034553e-08,5.224174159934591444e-08,4.693753242492675781e+00,-1.647359691560268402e-02,-1.921891793608665466e-02
7.520000000000000000e+02,1.480000019073486328e+01,3.000000119209289551e-01,3.301208906236752227e-08,5.294238647479687643e-08,4.693752765655517578e+00,-1.647362671792507172e-02,-1.921918429434299469e-02
7.530000000000000000e+02,1.489999961853027344e+01,3.000000119209289551e-01,3.323583541714469902e-08,5.364778132843639469e-08,4.693752765655517578e+00,-1.647366024553775787e-02,-1.921905204653739929e-02
7.540000000000000000e+02,1.500000000000000000e+01,3.000000119209289551e-01,3.345958532463555457e-08,5.435794037111918442e-08,4.693752765655517578e+00,-1.647369191050529480e-02,-1.921928673982620239e-02
7.550000000000000000e+02,1.510000038146972656e+01,3.000000119209289551e-01,3.368333167941273132e-08,5.507286005013156682e-08,4.693752288818359375e+00,-1.647372357547283173e-02,-1.921931281685829163e-02
7.560000000000000000e+02,1.519999980926513672e+01,3.000000119209289551e-01,3.390707803418990807e-08,5.579253326004618430e-08,4.693752288818359375e+00,-1.647375524044036865e-02,-1.921912655234336853e-02
7.570000000000000000e+02,1.530000019073486328e+01,3.000000119209289551e-01,3.413082794168076362e-08,5.651697421171775204e-08,4.693752288818359375e+00,-1.647379435598850250e-02,-1.921929791569709778e-02
7.580000000000000000e+02,1.539999961853027344e+01,3.000000119209289551e-01,3.435457429645794036e-08,5.724616158886419726e-08,4.693751811981201172e+00,-1.647383905947208405e-02,-1.921905949711799622e-02
7.590000000000000000e+02,1.550000000000000000e+01,3.000000119209289551e-01,3.457832065123511711e-08,5.798012026048127154e-08,4.693751811981201172e+00,-1.647388562560081482e-02,-1.921917498111724854e-02
7.600000000000000000e+02,1.560000038146972656e+01,3.000000119209289551e-01,3.480207055872597266e-08,5.871883601571425970e-08,4.693751335144042969e+00,-1.647393777966499329e-02,-1.921906508505344391e-02
7.610000000000000000e+02,1.569999980926513672e+01,3.000000119209289551e-01,3.502581691350314941e-08,5.946230174913580413e-08,4.693750858306884766e+00,-1.647399365901947021e-02,-1.921871677041053772e-02
7.620000000000000000e+02,1.580000019073486328e+01,3.000000119209289551e-01,3.524956326828032616e-08,6.021053877702797763e-08,4.693750858306884766e+00,-1.647406071424484253e-02,-1.921870186924934387e-02
7.630000000000000000e+02,1.589999961853027344e+01,3.000000119209289551e-01,3.547330962305750290e-08,6.096352223039502860e-08,4.693750381469726562e+00,-1.647414080798625946e-02,-1.921824365854263306e-02
7.640000000000000000e+02,1.600000000000000000e+01,3.000000119209289551e-01,3.569705953054835845e-08,6.172127342551902984e-08,4.693749427795410156e+00,-1.647423021495342255e-02,-1.921809650957584381e-02
7.650000000000000000e+02,1.610000038146972656e+01,3.000000119209289551e-01,3.592080588532553520e-08,6.248378525697262376e-08,4.693748950958251953e+00,-1.647432707250118256e-02,-1.921767927706241608e-02
7.660000000000000000e+02,1.620000076293945312e+01,3.000000119209289551e-01,3.614455579281639075e-08,6.325105772475581034e-08,4.693747997283935547e+00,-1.647443138062953949e-02,-1.921715587377548218e-02
7.670000000000000000e+02,1.629999923706054688e+01,3.000000119209289551e-01,3.636829859487988870e-08,6.402306951258651679e-08,4.693747043609619141e+00,-1.647456362843513489e-02,-1.921612769365310669e-02
7.680000000000000000e+02,1.639999961853027344e+01,3.000000119209289551e-01,3.659204494965706544e-08,6.479986325302888872e-08,4.693745613098144531e+00,-1.647472009062767029e-02,-1.921572536230087280e-02
7.690000000000000000e+02,1.650000000000000000e+01,3.000000119209289551e-01,3.681579485714792099e-08,6.558141052437349572e-08,4.693743705749511719e+00,-1.647489890456199646e-02,-1.921477913856506348e-02
7.700000000000000000e+02,1.660000038146972656e+01,3.000000119209289551e-01,3.703954121192509774e-08,6.636771843204769539e-08,4.693741798400878906e+00,-1.647508703172206879e-02,-1.921363733708858490e-02
7.710000000000000000e+02,1.670000076293945312e+01,3.000000119209289551e-01,3.726328756670227449e-08,6.715878697605148773e-08,4.693739414215087891e+00,-1.647530123591423035e-02,-1.921225897967815399e-02
7.720000000000000000e+02,1.679999923706054688e+01,3.000000119209289551e-01,3.748703036876577244e-08,6.795459484010279994e-08,4.693736553192138672e+00,-1.647555828094482422e-02,-1.921022310853004456e-02
7.730000000000000000e+02,1.689999961853027344e+01,3.000000119209289551e-01,3.771078027625662799e-08,6.875517755133842002e-08,4.693733215332031250e+00,-1.647585816681385040e-02,-1.920863427221775055e-02
7.740000000000000000e+02,1.700000000000000000e+01,3.000000119209289551e-01,3.793452663103380473e-08,6.956052800433099037e-08,4.693728923797607422e+00,-1.647619903087615967e-02,-1.920629106462001801e-02
7.750000000000000000e+02,1.710000038146972656e+01,3.000000119209289551e-01,3.815827298581098148e-08,7.037063198822579579e-08,4.693724155426025391e+00,-1.647657342255115509e-02,-1.920350641012191772e-02
7.760000000000000000e+02,1.720000076293945312e+01,3.000000119209289551e-01,3.838201934058815823e-08,7.118548950302283629e-08,4.693718910217285156e+00,-1.647699996829032898e-02,-1.920020207762718201e-02
7.770000000000000000e+02,1.729999923706054688e+01,3.000000119209289551e-01,3.860576214265165618e-08,7.200510054872211185e-08,4.693711757659912109e+00,-1.647749915719032288e-02,-1.919590681791305542e-02
7.780000000000000000e+02,1.739999961853027344e+01,3.000000119209289551e-01,3.882950849742883292e-08,7.282947933617833769e-08,4.693704128265380859e+00,-1.647807657718658447e-02,-1.919166930019855499e-02
7.790000000000000000e+02,1.750000000000000000e+01,3.000000119209289551e-01,3.905325485220600967e-08,7.365862586539151380e-08,4.693695068359375000e+00,-1.647873781621456146e-02,-1.918622292578220367e-02
7.800000000000000000e+02,1.760000038146972656e+01,3.000000119209289551e-01,3.927699765426950762e-08,7.449252592550692498e-08,4.693684101104736328e+00,-1.647948101162910461e-02,-1.917980052530765533e-02
7.810000000000000000e+02,1.770000076293945312e+01,3.000000119209289551e-01,3.950074400904668437e-08,7.533118662195192883e-08,4.693671703338623047e+00,-1.648034155368804932e-02,-1.917223073542118073e-02
7.820000000000000000e+02,1.779999923706054688e+01,3.000000119209289551e-01,3.972448325839650352e-08,7.617458663844445255e-08,4.693656921386718750e+00,-1.648135297000408173e-02,-1.916292682290077209e-02
7.830000000000000000e+02,1.789999961853027344e+01,3.000000119209289551e-01,3.994822606046000146e-08,7.702276860754864174e-08,4.693640232086181641e+00,-1.648254133760929108e-02,-1.915280334651470184e-02
7.840000000000000000e+02,1.800000000000000000e+01,3.000000119209289551e-01,4.017196886252349941e-08,7.787570410755506600e-08,4.693620681762695312e+00,-1.648393832147121429e-02,-1.914042420685291290e-02
7.850000000000000000e+02,1.810000038146972656e+01,3.000000119209289551e-01,4.039570811187331856e-08,7.873340734931844054e-08,4.693598270416259766e+00,-1.648558676242828369e-02,-1.912581548094749451e-02
7.860000000000000000e+02,1.820000076293945312e+01,3.000000119209289551e-01,4.061944736122313770e-08,7.959586412198405014e-08,4.693572044372558594e+00,-1.648757234215736389e-02,-1.910854503512382507e-02
7.870000000000000000e+02,1.829999923706054688e+01,3.000000119209289551e-01,4.084318305785927805e-08,8.046306021469717962e-08,4.693542480468750000e+00,-1.649000868201255798e-02,-1.908770203590393066e-02
7.880000000000000000e+02,1.839999961853027344e+01,3.000000119209289551e-01,4.106691875449541840e-08,8.133503826002197457e-08,4.693509101867675781e+00,-1.649303361773490906e-02,-1.906378194689750671e-02
7.890000000000000000e+02,1.850000000000000000e+01,3.000000119209289551e-01,4.129065445113155874e-08,8.221176983624900458e-08,4.693470954895019531e+00,-1.649684645235538483e-02,-1.903480850160121918e-02
7.900000000000000000e+02,1.860000038146972656e+01,3.000000119209289551e-01,4.151438659505402029e-08,8.309326915423298487e-08,4.693428039550781250e+00,-1.650173217058181763e-02,-1.900011487305164337e-02
7.910000000000000000e+02,1.870000076293945312e+01,3.000000119209289551e-01,4.173811873897648184e-08,8.397952200311920024e-08,4.693380355834960938e+00,-1.650814525783061981e-02,-1.895834133028984070e-02
7.920000000000000000e+02,1.879999923706054688e+01,3.000000119209289551e-01,4.196184377747158578e-08,8.487051417205293546e-08,4.693328380584716797e+00,-1.651675812900066376e-02,-1.890735886991024017e-02
7.930000000000000000e+02,1.889999961853027344e+01,3.000000119209289551e-01,4.218556881596668973e-08,8.576628118817097857e-08,4.693272113800048828e+00,-1.652859337627887726e-02,-1.884603500366210938e-02
7.940000000000000000e+02,1.900000000000000000e+01,3.000000119209289551e-01,4.240929385446179367e-08,8.666680173519125674e-08,4.693214416503906250e+00,-1.654525101184844971e-02,-1.877022907137870789e-02
7.950000000000000000e+02,1.910000038146972656e+01,3.000000119209289551e-01,4.263301534024321882e-08,8.757208291854112758e-08,4.693157672882080078e+00,-1.656929962337017059e-02,-1.867642812430858612e-02
7.960000000000000000e+02,1.920000076293945312e+01,3.000000119209289551e-01,4.285673327331096516e-08,8.848211052736587590e-08,4.693109989166259766e+00,-1.660499721765518188e-02,-1.855969429016113281e-02
7.970000000000000000e+02,1.929999923706054688e+01,3.000000119209289551e-01,4.308044765366503270e-08,8.939687745623814408e-08,4.693083286285400391e+00,-1.665942743420600891e-02,-1.841390132904052734e-02
7.980000000000000000e+02,1.939999961853027344e+01,3.000000119209289551e-01,4.330416913944645785e-08,9.031639791601264733e-08,4.693100929260253906e+00,-1.674439571797847748e-02,-1.823513582348823547e-02
7.990000000000000000e+02,1.950000000000000000e+01,3.000000119209289551e-01,4.352789773065524059e-08,9.124066480126202805e-08,4.693202972412109375e+00,-1.687846332788467407e-02,-1.802357472479343414e-02
8.000000000000000000e+02,1.960000038146972656e+01,3.000000119209289551e-01,4.375164053271873854e-08,9.216964969027685584e-08,4.693453311920166016e+00,-1.708385907113552094e-02,-1.780649833381175995e-02
8.010000000000000000e+02,1.970000076293945312e+01,3.000000119209289551e-01,4.397540820377798809e-08,9.310333837220241548e-08,4.693933486938476562e+00,-1.733764633536338806e-02,-1.769023016095161438e-02
8.020000000000000000e+02,1.979999923706054688e+01,3.000000119209289551e-01,4.419920784926034685e-08,9.404166689819248859e-08,4.694630622863769531e+00,-1.731348410248756409e-02,-1.799746416509151459e-02
8.030000000000000000e+02,1.989999961853027344e+01,3.000000119209289551e-01,4.442300749474270560e-08,9.498466368995650555e-08,4.695392608642578125e+00,-1.477076299488544464e-02,-1.895640045404434204e-02
8.040000000000000000e+02,2.000000000000000000e+01,3.000000119209289551e-01,4.464677516580195515e-08,9.593240690719539998e-08,4.696176052093505859e+00,-9.555228985846042633e-03,-1.890257932245731354e-02
8.050000000000000000e+02,0.000000000000000000e+00,4.000000059604644775e-01,2.606431286602468774e-37,9.635127574757350866e-38,4.676106929779052734e+00,1.402832150459289551e+00,7.171124219894409180e-01
8.060000000000000000e+02,1.000000014901161194e-01,4.000000059604644775e-01,2.026313145053748599e-10,8.878534712986052568e-11,4.565502643585205078e+00,1.034151077270507812e+00,6.304035782814025879e-01
8.070000000000000000e+02,2.000000029802322388e-01,4.000000059604644775e-01,4.137455933417300002e-10,1.871734572889138803e-10,4.646089553833007812e+00,7.089661955833435059e-01,6.047392487525939941e-01
8.080000000000000000e+02,3.000000119209289551e-01,4.000000059604644775e-01,6.319152978662145870e-10,2.886766103937787875e-10,4.718759536743164062e+00,4.573196768760681152e-01,5.271775126457214355e-01
8.090000000000000000e+02,4.000000059604644775e-01,4.000000059604644775e-01,8.543313834152854724e-10,3.884690347177865988e-10,4.759552478790283203e+00,2.960489988327026367e-01,4.255345761775970459e-01
8.100000000000000000e+02,5.000000000000000000e-01,4.000000059604644775e-01,1.078367395379586924e-09,4.843819789712711099e-10,4.764737129211425781e+00,1.999316960573196411e-01,3.286909759044647217e-01
8.110000000000000000e+02,6.000000238418579102e-01,4.000000059604644775e-01,1.302255303592403379e-09,5.761769394929672217e-10,4.743188381195068359e+00,1.384813487529754639e-01,2.470196485519409180e-01
8.120000000000000000e+02,6.999999880790710449e-01,4.000000059604644775e-01,1.525163995097500447e-09,6.645309302832913545e-10,4.710408210754394531e+00,9.774640947580337524e-02,1.822424679994583130e-01
8.130000000000000000e+02,8.000000119209289551e-01,4.000000059604644775e-01,1.746803812707753423e-09,7.503597188041055688e-10,4.675323963165283203e+00,6.962834298610687256e-02,1.318948417901992798e-01
8.140000000000000000e+02,8.999999761581420898e-01,4.000000059604644775e-01,1.967163543170613593e-09,8.345776292273399122e-10,4.642437458038330078e+00,4.961358383297920227e-02,9.300598502159118652e-02
8.150000000000000000e+02,1.000000000000000000e+00,4.000000059604644775e-01,2.186357983546827199e-09,9.180104454387105761e-10,4.613577842712402344e+00,3.498391062021255493e-02,6.294228881597518921e-02
8.160000000000000000e+02,1.100000023841857910e+00,4.000000059604644775e-01,2.404549226397989514e-09,1.001376759290906193e-09,4.589230060577392578e+00,2.405007369816303253e-02,3.962477669119834900e-02
8.170000000000000000e+02,1.200000047683715820e+00,4.000000059604644775e-01,2.621907579936078037e-09,1.085293410696408500e-09,4.569243431091308594e+00,1.572147384285926819e-02,2.147080935537815094e-02
8.180000000000000000e+02,1.299999952316284180e+00,4.000000059604644775e-01,2.838594026499663414e-09,1.170288088658821835e-09,4.553202152252197266e+00,9.273099713027477264e-03,7.291205693036317825e-03
8.190000000000000000e+02,1.399999976158142090e+00,4.000000059604644775e-01,3.054753339171156767e-09,1.256813209060680947e-09,4.540606498718261719e+00,4.209961742162704468e-03,-3.807139815762639046e-03
8.200000000000000000e+02,1.500000000000000000e+00,4.000000059604644775e-01,3.270510751107735814e-09,1.345257572005209568e-09,4.530958175659179688e+00,1.862180506577715278e-04,-1.249804254621267319e-02
8.210000000000000000e+02,1.600000023841857910e+00,4.000000059604644775e-01,3.485973287808974419e-09,1.435956908935054344e-09,4.523797988891601562e+00,-3.044826677069067955e-03,-1.929377950727939606e-02
8.220000000000000000e+02,1.700000047683715820e+00,4.000000059604644775e-01,3.701231321429077070e-09,1.529202875438784304e-09,4.518719196319580078e+00,-5.662440788000822067e-03,-2.458713762462139130e-02
8.230000000000000000e+02,1.799999952316284180e+00,4.000000059604644775e-01,3.916360125089113353e-09,1.625249490544433684e-09,4.515368461608886719e+00,-7.799086626619100571e-03,-2.868196927011013031e-02
8.240000000000000000e+02,1.899999976158142090e+00,4.000000059604644775e-01,4.131422315367672127e-09,1.724319576013044752e-09,4.513443470001220703e+00,-9.554146789014339447e-03,-3.181551396846771240e-02
8.250000000000000000e+02,2.000000000000000000e+00,4.000000059604644775e-01,4.346469406613095998e-09,1.826608642119254000e-09,4.512686729431152344e+00,-1.100321207195520401e-02,-3.417444974184036255e-02
8.260000000000000000e+02,2.099999904632568359e+00,4.000000059604644775e-01,4.561542699121901023e-09,1.932289217521088176e-09,4.512880802154541016e+00,-1.220451947301626205e-02,-3.590699285268783569e-02
8.270000000000000000e+02,2.200000047683715820e+00,4.000000059604644775e-01,4.776676387763245657e-09,2.041514290951340627e-09,4.513842105865478516e+00,-1.320346910506486893e-02,-3.713176399469375610e-02
8.280000000000000000e+02,2.299999952316284180e+00,4.000000059604644775e-01,4.991896673800511053e-09,2.154419309619015621e-09,4.515415191650390625e+00,-1.403582654893398285e-02,-3.794413432478904724e-02
8.290000000000000000e+02,2.400000095367431641e+00,4.000000059604644775e-01,5.207224873515770014e-09,2.271125065789192377e-09,4.517470836639404297e+00,-1.473007444292306900e-02,-3.842171281576156616e-02
8.300000000000000000e+02,2.500000000000000000e+00,4.000000059604644775e-01,5.422676974120577142e-09,2.391738584961444758e-09,4.519898891448974609e+00,-1.530908979475498199e-02,-3.862753510475158691e-02
8.310000000000000000e+02,2.599999904632568359e+00,4.000000059604644775e-01,5.638264521934388540e-09,2.516356012449705304e-09,4.522607803344726562e+00,-1.579143293201923370e-02,-3.861356526613235474e-02
8.320000000000000000e+02,2.700000047683715820e+00,4.000000059604644775e-01,5.853996842830611058e-09,2.645063501560684927e-09,4.525520801544189453e+00,-1.619227603077888489e-02,-3.842254355549812317e-02
8.330000000000000000e+02,2.799999952316284180e+00,4.000000059604644775e-01,6.069879265879762897e-09,2.777937213593872912e-09,4.528573036193847656e+00,-1.652411557734012604e-02,-3.808974102139472961e-02
8.340000000000000000e+02,2.900000095367431641e+00,4.000000059604644775e-01,6.285915343795522858e-09,2.915046426466005869e-09,4.531711578369140625e+00,-1.679733768105506897e-02,-3.764472901821136475e-02
8.350000000000000000e+02,3.000000000000000000e+00,4.000000059604644775e-01,6.502105520667100791e-09,3.056452202443438182e-09,4.534891605377197266e+00,-1.702061668038368225e-02,-3.711185976862907410e-02
8.360000000000000000e+02,3.099999904632568359e+00,4.000000059604644775e-01,6.718449796494496695e-09,3.202209608588191259e-09,4.538076877593994141e+00,-1.720125786960124969e-02,-3.651173785328865051e-02
8.370000000000000000e+02,3.200000047683715820e+00,4.000000059604644775e-01,6.934947283099290871e-09,3.352368826980978156e-09,4.541236400604248047e+00,-1.734544336795806885e-02,-3.586149215698242188e-02
8.380000000000000000e+02,3.299999952316284180e+00,4.000000059604644775e-01,7.151593983678594668e-09,3.506973378364364180e-09,4.544346809387207031e+00,-1.745843142271041870e-02,-3.517534583806991577e-02
8.390000000000000000e+02,3.400000095367431641e+00,4.000000059604644775e-01,7.368387233697148986e-09,3.666063230767235837e-09,4.547387599945068359e+00,-1.754472590982913971e-02,-3.446547314524650574e-02
8.400000000000000000e+02,3.500000000000000000e+00,4.000000059604644775e-01,7.585321704084435623e-09,3.829673467237171280e-09,4.550343513488769531e+00,-1.760819368064403534e-02,-3.374173864722251892e-02
8.410000000000000000e+02,3.599999904632568359e+00,4.000000059604644775e-01,7.802392509859146230e-09,3.997836284241884641e-09,4.553202152252197266e+00,-1.765217259526252747e-02,-3.301265463232994080e-02
8.420000000000000000e+02,3.700000047683715820e+00,4.000000059604644775e-01,8.019595654218392156e-09,4.170579881446201398e-09,4.555953979492187500e+00,-1.767955347895622253e-02,-3.228517621755599976e-02
8.430000000000000000e+02,3.799999952316284180e+00,4.000000059604644775e-01,8.236924031734815799e-09,4.347929127845873154e-09,4.558593273162841797e+00,-1.769283972680568695e-02,-3.156492114067077637e-02
8.440000000000000000e+02,3.900000095367431641e+00,4.000000059604644775e-01,8.454373201516318659e-09,4.529906671990602263e-09,4.561114788055419922e+00,-1.769421622157096863e-02,-3.085679747164249420e-02
8.450000000000000000e+02,4.000000000000000000e+00,4.000000059604644775e-01,8.671936058135543135e-09,4.716532497894831977e-09,4.563515663146972656e+00,-1.768558658659458160e-02,-3.016446158289909363e-02
8.460000000000000000e+02,4.099999904632568359e+00,4.000000059604644775e-01,8.889607272521971026e-09,4.907824369126956299e-09,4.565794944763183594e+00,-1.766861230134963989e-02,-2.949113585054874420e-02
8.470000000000000000e+02,4.199999809265136719e+00,4.000000059604644775e-01,9.107380627426664432e-09,5.103797828809319981e-09,4.567952632904052734e+00,-1.764474064111709595e-02,-2.883920818567276001e-02
8.480000000000000000e+02,4.300000190734863281e+00,4.000000059604644775e-01,9.325251681957524852e-09,5.304467975975057925e-09,4.569989204406738281e+00,-1.761524192988872528e-02,-2.821063622832298279e-02
8.490000000000000000e+02,4.400000095367431641e+00,4.000000059604644775e-01,9.543212442508774984e-09,5.509844580586786833e-09,4.571907520294189453e+00,-1.758121512830257416e-02,-2.760655060410499573e-02
8.500000000000000000e+02,4.500000000000000000e+00,4.000000059604644775e-01,9.761258468188316328e-09,5.719939633053172656e-09,4.573709011077880859e+00,-1.754363253712654114e-02,-2.702819742262363434e-02
8.510000000000000000e+02,4.599999904632568359e+00,4.000000059604644775e-01,9.979384429925630684e-09,5.934762459247622246e-09,4.575397491455078125e+00,-1.750333234667778015e-02,-2.647611685097217560e-02
8.520000000000000000e+02,4.699999809265136719e+00,4.000000059604644775e-01,1.019758499865019985e-08,6.154321496865122754e-09,4.576976776123046875e+00,-1.746104098856449127e-02,-2.595064043998718262e-02
8.530000000000000000e+02,4.800000190734863281e+00,4.000000059604644775e-01,1.041585573346992533e-08,6.378624295422241630e-09,4.578450202941894531e+00,-1.741739176213741302e-02,-2.545192092657089233e-02
8.540000000000000000e+02,4.900000095367431641e+00,4.000000059604644775e-01,1.063419041713586921e-08,6.607675295811077376e-09,4.579822540283203125e+00,-1.737292669713497162e-02,-2.497954852879047394e-02
8.550000000000000000e+02,5.000000000000000000e+00,4.000000059604644775e-01,1.085258549693435270e-08,6.841480271191358042e-09,4.581098079681396484e+00,-1.732811890542507172e-02,-2.453346177935600281e-02
8.560000000000000000e+02,5.099999904632568359e+00,4.000000059604644775e-01,1.107103564379485761e-08,7.080044106544391980e-09,4.582281112670898438e+00,-1.728336513042449951e-02,-2.411309629678726196e-02
8.570000000000000000e+02,5.199999809265136719e+00,4.000000059604644775e-01,1.128953819318212481e-08,7.323370354583857988e-09,4.583375930786132812e+00,-1.723900437355041504e-02,-2.371784485876560211e-02
8.580000000000000000e+02,5.300000190734863281e+00,4.000000059604644775e-01,1.150808870420405583e-08,7.571463456201854569e-09,4.584387779235839844e+00,-1.719532161951065063e-02,-2.334708720445632935e-02
8.590000000000000000e+02,5.400000095367431641e+00,4.000000059604644775e-01,1.172668184779013245e-08,7.824323411398381722e-09,4.585320949554443359e+00,-1.715254969894886017e-02,-2.299977093935012817e-02
8.600000000000000000e+02,5.500000000000000000e+00,4.000000059604644775e-01,1.194531584758351528e-08,8.081953772887118248e-09,4.586180210113525391e+00,-1.711088791489601135e-02,-2.267531119287014008e-02
8.610000000000000000e+02,5.599999904632568359e+00,4.000000059604644775e-01,1.216398626269210581e-08,8.344356317024903547e-09,4.586969375610351562e+00,-1.707049459218978882e-02,-2.237272821366786957e-02
8.620000000000000000e+02,5.699999809265136719e+00,4.000000059604644775e-01,1.238269131675906465e-08,8.611532820168577018e-09,4.587692737579345703e+00,-1.703149080276489258e-02,-2.209108695387840271e-02
8.630000000000000000e+02,5.800000190734863281e+00,4.000000059604644775e-01,1.260142834524913269e-08,8.883484170496558363e-09,4.588355064392089844e+00,-1.699397340416908264e-02,-2.182952128350734711e-02
8.640000000000000000e+02,5.900000095367431641e+00,4.000000059604644775e-01,1.282019201909179174e-08,9.160209479830427881e-09,4.588960170745849609e+00,-1.695800758898258209e-02,-2.158680185675621033e-02
8.650000000000000000e+02,6.000000000000000000e+00,4.000000059604644775e-01,1.303898145010862208e-08,9.441710524527024972e-09,4.589511394500732422e+00,-1.692364364862442017e-02,-2.136223018169403076e-02
8.660000000000000000e+02,6.099999904632568359e+00,4.000000059604644775e-01,1.325779486194278434e-08,9.727988192764769337e-09,4.590013027191162109e+00,-1.689091324806213379e-02,-2.115475572645664215e-02
8.670000000000000000e+02,6.199999809265136719e+00,4.000000059604644775e-01,1.347662959005901939e-08,1.001904070818682158e-08,4.590468883514404297e+00,-1.685982383787631989e-02,-2.096343226730823517e-02
8.680000000000000000e+02,6.300000190734863281e+00,4.000000059604644775e-01,1.369548385810048785e-08,1.031487073532844079e-08,4.590881347656250000e+00,-1.683037169277667999e-02,-2.078741230070590973e-02
8.690000000000000000e+02,6.400000095367431641e+00,4.000000059604644775e-01,1.391435500153193061e-08,1.061547560965436787e-08,4.591254711151123047e+00,-1.680254191160202026e-02,-2.062551863491535187e-02
8.700000000000000000e+02,6.500000000000000000e+00,4.000000059604644775e-01,1.413324124399650827e-08,1.092085533116460283e-08,4.591591358184814453e+00,-1.677631214261054993e-02,-2.047713100910186768e-02
8.710000000000000000e+02,6.599999904632568359e+00,4.000000059604644775e-01,1.435214258549422084e-08,1.123100989985914566e-08,4.591894149780273438e+00,-1.675164699554443359e-02,-2.034130878746509552e-02
8.720000000000000000e+02,6.699999809265136719e+00,4.000000059604644775e-01,1.457105547331138951e-08,1.154593931573799637e-08,4.592165946960449219e+00,-1.672850735485553741e-02,-2.021722495555877686e-02
8.730000000000000000e+02,6.800000190734863281e+00,4.000000059604644775e-01,1.478998168380485367e-08,1.186564446697957464e-08,4.592409610748291016e+00,-1.670684106647968292e-02,-2.010417170822620392e-02
8.740000000000000000e+02,6.900000095367431641e+00,4.000000059604644775e-01,1.500891677608251484e-08,1.219012091269178200e-08,4.592627048492431641e+00,-1.668660156428813934e-02,-2.000112086534500122e-02
8.750000000000000000e+02,7.000000000000000000e+00,4.000000059604644775e-01,1.522785986196595331e-08,1.251937131740987752e-08,4.592820644378662109e+00,-1.666773296892642975e-02,-1.990761421620845795e-02
8.760000000000000000e+02,7.099999904632568359e+00,4.000000059604644775e-01,1.544681182963358879e-08,1.285339301659860212e-08,4.592992305755615234e+00,-1.665017753839492798e-02,-1.982287317514419556e-02
8.770000000000000000e+02,7.199999809265136719e+00,4.000000059604644775e-01,1.566576912637174246e-08,1.319218601025795579e-08,4.593144416809082031e+00,-1.663387939333915710e-02,-1.974624395370483398e-02
8.780000000000000000e+02,7.300000190734863281e+00,4.000000059604644775e-01,1.588473530489409313e-08,1.353575296292319763e-08,4.593278408050537109e+00,-1.661877334117889404e-02,-1.967719197273254395e-02
8.790000000000000000e+02,7.400000095367431641e+00,4.000000059604644775e-01,1.610370503613012261e-08,1.388408765734538974e-08,4.593396186828613281e+00,-1.660480163991451263e-02,-1.961486227810382843e-02
8.800000000000000000e+02,7.500000000000000000e+00,4.000000059604644775e-01,1.632268009643667028e-08,1.423719186988137153e-08,4.593499183654785156e+00,-1.659190282225608826e-02,-1.955896988511085510e-02
8.810000000000000000e+02,7.599999904632568359e+00,4.000000059604644775e-01,1.654166048581373616e-08,1.459506560053114299e-08,4.593588829040527344e+00,-1.658002100884914398e-02,-1.950890757143497467e-02
8.820000000000000000e+02,7.699999809265136719e+00,4.000000059604644775e-01,1.676064265154764144e-08,1.495770796111628442e-08,4.593666076660156250e+00,-1.656909659504890442e-02,-1.946419291198253632e-02
8.830000000000000000e+02,7.800000190734863281e+00,4.000000059604644775e-01,1.697962836999522551e-08,1.532511895163679583e-08,4.593732833862304688e+00,-1.655906811356544495e-02,-1.942445337772369385e-02
8.840000000000000000e+02,7.900000095367431641e+00,4.000000059604644775e-01,1.719861764115648839e-08,1.569729590755741810e-08,4.593790054321289062e+00,-1.654988154768943787e-02,-1.938899606466293335e-02
8.850000000000000000e+02,8.000000000000000000e+00,4.000000059604644775e-01,1.741760691231775127e-08,1.607424060523499065e-08,4.593838214874267578e+00,-1.654148288071155548e-02,-1.935769058763980865e-02
8.860000000000000000e+02,8.100000381469726562e+00,4.000000059604644775e-01,1.763659973619269294e-08,1.645595304466951347e-08,4.593879222869873047e+00,-1.653381995856761932e-02,-1.933017745614051819e-02
8.870000000000000000e+02,8.199999809265136719e+00,4.000000059604644775e-01,1.785559256006763462e-08,1.684242612043362897e-08,4.593912601470947266e+00,-1.652684435248374939e-02,-1.930574141442775726e-02
8.880000000000000000e+02,8.300000190734863281e+00,4.000000059604644775e-01,1.807458893665625510e-08,1.723366871431153413e-08,4.593940258026123047e+00,-1.652050577104091644e-02,-1.928470656275749207e-02
8.890000000000000000e+02,8.399999618530273438e+00,4.000000059604644775e-01,1.829358353688803618e-08,1.762967372087587137e-08,4.593962669372558594e+00,-1.651475764811038971e-02,-1.926605030894279480e-02
8.900000000000000000e+02,8.500000000000000000e+00,4.000000059604644775e-01,1.851258168983349606e-08,1.803044469284031948e-08,4.593980312347412109e+00,-1.650955900549888611e-02,-1.925023272633552551e-02
8.910000000000000000e+02,8.600000381469726562e+00,4.000000059604644775e-01,1.873157984277895594e-08,1.843598163020487846e-08,4.593993663787841797e+00,-1.650486513972282410e-02,-1.923645474016666412e-02
8.920000000000000000e+02,8.699999809265136719e+00,4.000000059604644775e-01,1.895057621936757641e-08,1.884627742754219071e-08,4.594003677368164062e+00,-1.650063693523406982e-02,-1.922448538243770599e-02
8.930000000000000000e+02,8.800000190734863281e+00,4.000000059604644775e-01,1.916957437231303629e-08,1.926133919027961383e-08,4.594010353088378906e+00,-1.649684086441993713e-02,-1.921466551721096039e-02
8.940000000000000000e+02,8.899999618530273438e+00,4.000000059604644775e-01,1.938857252525849617e-08,1.968115981298979023e-08,4.594014167785644531e+00,-1.649343967437744141e-02,-1.920607127249240875e-02
8.950000000000000000e+02,9.000000000000000000e+00,4.000000059604644775e-01,1.960757067820395605e-08,2.010574817745691689e-08,4.594016075134277344e+00,-1.649040170013904572e-02,-1.919925585389137268e-02
8.960000000000000000e+02,9.100000381469726562e+00,4.000000059604644775e-01,1.982657060750625533e-08,2.053509895461047563e-08,4.594015598297119141e+00,-1.648769341409206390e-02,-1.919351331889629364e-02
8.970000000000000000e+02,9.199999809265136719e+00,4.000000059604644775e-01,2.004556698409487581e-08,2.096920681537994824e-08,4.594013690948486328e+00,-1.648528687655925751e-02,-1.918869465589523315e-02
8.980000000000000000e+02,9.300000190734863281e+00,4.000000059604644775e-01,2.026456513704033569e-08,2.140808064154953172e-08,4.594010353088378906e+00,-1.648315787315368652e-02,-1.918521523475646973e-02
8.990000000000000000e+02,9.399999618530273438e+00,4.000000059604644775e-01,2.048356151362895616e-08,2.185171155133502907e-08,4.594006061553955078e+00,-1.648128032684326172e-02,-1.918222382664680481e-02
9.000000000000000000e+02,9.500000000000000000e+00,4.000000059604644775e-01,2.070255966657441604e-08,2.230010665016379789e-08,4.594000339508056641e+00,-1.647963188588619232e-02,-1.918034441769123077e-02
9.010000000000000000e+02,9.600000381469726562e+00,4.000000059604644775e-01,2.092155781951987592e-08,2.275326416167899879e-08,4.593994617462158203e+00,-1.647818647325038910e-02,-1.917893067002296448e-02
9.020000000000000000e+02,9.699999809265136719e+00,4.000000059604644775e-01,2.114055419610849640e-08,2.321117875681011355e-08,4.593987464904785156e+00,-1.647692732512950897e-02,-1.917789131402969360e-02
9.030000000000000000e+02,9.800000190734863281e+00,4.000000059604644775e-01,2.135955057269711688e-08,2.367385754098449979e-08,4.593980312347412109e+00,-1.647583954036235809e-02,-1.917769759893417358e-02
9.040000000000000000e+02,9.899999618530273438e+00,4.000000059604644775e-01,2.157854517292889795e-08,2.414129163241796050e-08,4.593973159790039062e+00,-1.647490076720714569e-02,-1.917754486203193665e-02
9.050000000000000000e+02,1.000000000000000000e+01,4.000000059604644775e-01,2.179754154951751843e-08,2.461349168925153208e-08,4.593965530395507812e+00,-1.647409982979297638e-02,-1.917810365557670593e-02
9.060000000000000000e+02,1.010000038146972656e+01,4.000000059604644775e-01,2.201653792610613891e-08,2.509045060605785693e-08,4.593957424163818359e+00,-1.647341810166835785e-02,-1.917877234518527985e-02
9.070000000000000000e+02,1.019999980926513672e+01,4.000000059604644775e-01,2.223553074998108059e-08,2.557216660648009565e-08,4.593949794769287109e+00,-1.647284254431724548e-02,-1.917948201298713684e-02
9.080000000000000000e+02,1.030000019073486328e+01,4.000000059604644775e-01,2.245452712656970107e-08,2.605864501958876644e-08,4.593942165374755859e+00,-1.647236756980419159e-02,-1.918077096343040466e-02
9.090000000000000000e+02,1.039999961853027344e+01,4.000000059604644775e-01,2.267351995044464275e-08,2.654988051631335111e-08,4.593934535980224609e+00,-1.647197641432285309e-02,-1.918182708323001862e-02
9.100000000000000000e+02,1.050000000000000000e+01,4.000000059604644775e-01,2.289251455067642382e-08,2.704588020208120724e-08,4.593926906585693359e+00,-1.647166162729263306e-02,-1.918338984251022339e-02
9.110000000000000000e+02,1.060000038146972656e+01,4.000000059604644775e-01,2.311150915090820490e-08,2.754663874782181665e-08,4.593919754028320312e+00,-1.647141017019748688e-02,-1.918485201895236969e-02
9.120000000000000000e+02,1.069999980926513672e+01,4.000000059604644775e-01,2.333050019842630718e-08,2.805215260082150053e-08,4.593912601470947266e+00,-1.647121831774711609e-02,-1.918618194758892059e-02
9.130000000000000000e+02,1.080000019073486328e+01,4.000000059604644775e-01,2.354949302230124886e-08,2.856243064286445588e-08,4.593905925750732422e+00,-1.647107675671577454e-02,-1.918794028460979462e-02
9.140000000000000000e+02,1.089999961853027344e+01,4.000000059604644775e-01,2.376848406981935113e-08,2.907746221580964630e-08,4.593899250030517578e+00,-1.647098176181316376e-02,-1.918933354318141937e-02
9.150000000000000000e+02,1.100000000000000000e+01,4.000000059604644775e-01,2.398747867005113221e-08,2.959725975415494759e-08,4.593893051147460938e+00,-1.647092401981353760e-02,-1.919111795723438263e-02
9.160000000000000000e+02,1.110000038146972656e+01,4.000000059604644775e-01,2.420646971756923449e-08,3.012181437611616275e-08,4.593886852264404297e+00,-1.647089608013629913e-02,-1.919270120561122894e-02
9.170000000000000000e+02,1.119999980926513672e+01,4.000000059604644775e-01,2.442546076508733677e-08,3.065112608169329178e-08,4.593881607055664062e+00,-1.647089794278144836e-02,-1.919407024979591370e-02
9.180000000000000000e+02,1.130000019073486328e+01,4.000000059604644775e-01,2.464445358896227845e-08,3.118520197631369228e-08,4.593875885009765625e+00,-1.647092215716838837e-02,-1.919579319655895233e-02
9.190000000000000000e+02,1.139999961853027344e+01,4.000000059604644775e-01,2.486344286012354132e-08,3.172403140183632786e-08,4.593871116638183594e+00,-1.647096872329711914e-02,-1.919709146022796631e-02
9.200000000000000000e+02,1.150000000000000000e+01,4.000000059604644775e-01,2.508243390764164360e-08,3.226762501640223491e-08,4.593866348266601562e+00,-1.647103019058704376e-02,-1.919873058795928955e-02
9.210000000000000000e+02,1.160000038146972656e+01,4.000000059604644775e-01,2.530142673151658528e-08,3.281597571458405582e-08,4.593861579895019531e+00,-1.647110469639301300e-02,-1.920012757182121277e-02
9.220000000000000000e+02,1.169999980926513672e+01,4.000000059604644775e-01,2.552041422632100875e-08,3.336908349638179061e-08,4.593857288360595703e+00,-1.647118851542472839e-02,-1.920127868652343750e-02
9.230000000000000000e+02,1.180000019073486328e+01,4.000000059604644775e-01,2.573940527383911103e-08,3.392695191450911807e-08,4.593853473663330078e+00,-1.647127978503704071e-02,-1.920275576412677765e-02
9.240000000000000000e+02,1.189999961853027344e+01,4.000000059604644775e-01,2.595839454500037391e-08,3.448957741625235940e-08,4.593849658966064453e+00,-1.647138036787509918e-02,-1.920378953218460083e-02
9.250000000000000000e+02,1.200000000000000000e+01,4.000000059604644775e-01,2.617738559251847619e-08,3.505696710703887220e-08,4.593846321105957031e+00,-1.647148467600345612e-02,-1.920514926314353943e-02
9.260000000000000000e+02,1.210000038146972656e+01,4.000000059604644775e-01,2.639637664003657846e-08,3.562911388144129887e-08,4.593842983245849609e+00,-1.647158898413181305e-02,-1.920625567436218262e-02
9.270000000000000000e+02,1.219999980926513672e+01,4.000000059604644775e-01,2.661536413484100194e-08,3.620601773945963942e-08,4.593840122222900391e+00,-1.647169701755046844e-02,-1.920710876584053040e-02
9.280000000000000000e+02,1.230000019073486328e+01,4.000000059604644775e-01,2.683435518235910422e-08,3.678768223380757263e-08,4.593837738037109375e+00,-1.647180505096912384e-02,-1.920828782021999359e-02
9.290000000000000000e+02,1.239999961853027344e+01,4.000000059604644775e-01,2.705334267716352770e-08,3.737410381177141971e-08,4.593834877014160156e+00,-1.647191308438777924e-02,-1.920902356505393982e-02
9.300000000000000000e+02,1.250000000000000000e+01,4.000000059604644775e-01,2.727233372468162997e-08,3.796528602606485947e-08,4.593832492828369141e+00,-1.647201925516128540e-02,-1.921008527278900146e-02
9.310000000000000000e+02,1.260000038146972656e+01,4.000000059604644775e-01,2.749132299584289285e-08,3.856123242940157070e-08,4.593830585479736328e+00,-1.647212170064449310e-02,-1.921090111136436462e-02
9.320000000000000000e+02,1.269999980926513672e+01,4.000000059604644775e-01,2.771031049064731633e-08,3.916192881092683820e-08,4.593828678131103516e+00,-1.647222228348255157e-02,-1.921147108078002930e-02
9.330000000000000000e+02,1.280000019073486328e+01,4.000000059604644775e-01,2.792930153816541861e-08,3.976738938149537717e-08,4.593826770782470703e+00,-1.647231914103031158e-02,-1.921237446367740631e-02
9.340000000000000000e+02,1.289999961853027344e+01,4.000000059604644775e-01,2.814828903296984208e-08,4.037760348296615120e-08,4.593825340270996094e+00,-1.647241599857807159e-02,-1.921284198760986328e-02
9.350000000000000000e+02,1.300000000000000000e+01,4.000000059604644775e-01,2.836727830413110496e-08,4.099258532619387552e-08,4.593823432922363281e+00,-1.647250726819038391e-02,-1.921364851295948029e-02
9.360000000000000000e+02,1.310000038146972656e+01,4.000000059604644775e-01,2.858626757529236784e-08,4.161232425303751370e-08,4.593822479248046875e+00,-1.647259294986724854e-02,-1.921421848237514496e-02
9.370000000000000000e+02,1.319999980926513672e+01,4.000000059604644775e-01,2.880525507009679131e-08,4.223681315806970815e-08,4.593821048736572266e+00,-1.647267490625381470e-02,-1.921455189585685730e-02
9.380000000000000000e+02,1.330000019073486328e+01,4.000000059604644775e-01,2.902424434125805419e-08,4.286607335757253168e-08,4.593820095062255859e+00,-1.647275313735008240e-02,-1.921523176133632660e-02
9.390000000000000000e+02,1.339999961853027344e+01,4.000000059604644775e-01,2.924323183606247767e-08,4.350007998255023267e-08,4.593819141387939453e+00,-1.647282950580120087e-02,-1.921548694372177124e-02
9.400000000000000000e+02,1.350000000000000000e+01,4.000000059604644775e-01,2.946222110722374055e-08,4.413885790199856274e-08,4.593818187713623047e+00,-1.647290028631687164e-02,-1.921609230339527130e-02
9.410000000000000000e+02,1.360000038146972656e+01,4.000000059604644775e-01,2.968121037838500342e-08,4.478238935234912788e-08,4.593817234039306641e+00,-1.647296734154224396e-02,-1.921647414565086365e-02
9.420000000000000000e+02,1.369999980926513672e+01,4.000000059604644775e-01,2.990019964954626630e-08,4.543067788631560688e-08,4.593816280364990234e+00,-1.647302880883216858e-02,-1.921662874519824982e-02
9.430000000000000000e+02,1.380000019073486328e+01,4.000000059604644775e-01,3.011918892070752918e-08,4.608373060932535736e-08,4.593815803527832031e+00,-1.647309027612209320e-02,-1.921714097261428833e-02
9.440000000000000000e+02,1.389999961853027344e+01,4.000000059604644775e-01,3.033817463915511325e-08,4.674153331052366411e-08,4.593815326690673828e+00,-1.647314801812171936e-02,-1.921723969280719757e-02
9.450000000000000000e+02,1.400000000000000000e+01,4.000000059604644775e-01,3.055716391031637613e-08,4.740410375347892113e-08,4.593814849853515625e+00,-1.647320203483104706e-02,-1.921769790351390839e-02
9.460000000000000000e+02,1.410000038146972656e+01,4.000000059604644775e-01,3.077615318147763901e-08,4.807143483276377083e-08,4.593814373016357422e+00,-1.647325232625007629e-02,-1.921794004738330841e-02
9.470000000000000000e+02,1.419999980926513672e+01,4.000000059604644775e-01,3.099513889992522309e-08,4.874351589023717679e-08,4.593813896179199219e+00,-1.647329889237880707e-02,-1.921796426177024841e-02
9.480000000000000000e+02,1.430000019073486328e+01,4.000000059604644775e-01,3.121412817108648596e-08,4.942036468946753303e-08,4.593813419342041016e+00,-1.647334545850753784e-02,-1.921835355460643768e-02
9.490000000000000000e+02,1.439999961853027344e+01,4.000000059604644775e-01,3.143311744224774884e-08,5.010196346688644553e-08,4.593813419342041016e+00,-1.647339202463626862e-02,-1.921833492815494537e-02
9.500000000000000000e+02,1.450000000000000000e+01,4.000000059604644775e-01,3.165210671340901172e-08,5.078832998606230831e-08,4.593812942504882812e+00,-1.647343672811985016e-02,-1.921868138015270233e-02
9.510000000000000000e+02,1.460000038146972656e+01,4.000000059604644775e-01,3.187109598457027460e-08,5.147945358885408496e-08,4.593812465667724609e+00,-1.647347956895828247e-02,-1.921881735324859619e-02
9.520000000000000000e+02,1.469999980926513672e+01,4.000000059604644775e-01,3.209008170301785867e-08,5.217533072254809667e-08,4.593812465667724609e+00,-1.647352427244186401e-02,-1.921873725950717926e-02
9.530000000000000000e+02,1.480000019073486328e+01,4.000000059604644775e-01,3.230907097417912155e-08,5.287597559799905866e-08,4.593812465667724609e+00,-1.647356897592544556e-02,-1.921902224421501160e-02
9.540000000000000000e+02,1.489999961853027344e+01,4.000000059604644775e-01,3.252805669262670563e-08,5.358137045163857692e-08,4.593811988830566406e+00,-1.647361740469932556e-02,-1.921890117228031158e-02
9.550000000000000000e+02,1.500000000000000000e+01,4.000000059604644775e-01,3.274704596378796850e-08,5.429152949432136666e-08,4.593811988830566406e+00,-1.647366769611835480e-02,-1.921914145350456238e-02
9.560000000000000000e+02,1.510000038146972656e+01,4.000000059604644775e-01,3.296603523494923138e-08,5.500645272604742786e-08,4.593811511993408203e+00,-1.647371985018253326e-02,-1.921916194260120392e-02
9.570000000000000000e+02,1.519999980926513672e+01,4.000000059604644775e-01,3.318502450611049426e-08,5.572612238324836653e-08,4.593811511993408203e+00,-1.647377759218215942e-02,-1.921896450221538544e-02
9.580000000000000000e+02,1.530000019073486328e+01,4.000000059604644775e-01,3.340401377727175714e-08,5.645056333491993428e-08,4.593811511993408203e+00,-1.647384464740753174e-02,-1.921911723911762238e-02
9.590000000000000000e+02,1.539999961853027344e+01,4.000000059604644775e-01,3.362299949571934121e-08,5.717975426478005829e-08,4.593811035156250000e+00,-1.647391915321350098e-02,-1.921884715557098389e-02
9.600000000000000000e+02,1.550000000000000000e+01,4.000000059604644775e-01,3.384198876688060409e-08,5.791370938368345378e-08,4.593811035156250000e+00,-1.647400483489036560e-02,-1.921892166137695312e-02
9.610000000000000000e+02,1.560000038146972656e+01,4.000000059604644775e-01,3.406097803804186697e-08,5.865242513891644194e-08,4.593810558319091797e+00,-1.647409982979297638e-02,-1.921875216066837311e-02
9.620000000000000000e+02,1.569999980926513672e+01,4.000000059604644775e-01,3.427996375648945104e-08,5.939589442505166517e-08,4.593810081481933594e+00,-1.647420972585678101e-02,-1.921833306550979614e-02
9.630000000000000000e+02,1.580000019073486328e+01,4.000000059604644775e-01,3.449895302765071392e-08,6.014412434751648107e-08,4.593809604644775391e+00,-1.647433824837207794e-02,-1.921822689473628998e-02
9.640000000000000000e+02,1.589999961853027344e+01,4.000000059604644775e-01,3.471793874609829800e-08,6.089711490631088964e-08,4.593809127807617188e+00,-1.647448912262916565e-02,-1.921765692532062531e-02
9.650000000000000000e+02,1.600000000000000000e+01,4.000000059604644775e-01,3.493692801725956087e-08,6.165486610143489088e-08,4.593808650970458984e+00,-1.647466421127319336e-02,-1.921737566590309143e-02
9.660000000000000000e+02,1.610000038146972656e+01,4.000000059604644775e-01,3.515591728842082375e-08,6.241737793288848479e-08,4.593808174133300781e+00,-1.647486537694931030e-02,-1.921678893268108368e-02
9.670000000000000000e+02,1.620000076293945312e+01,4.000000059604644775e-01,3.537490655958208663e-08,6.318465040067167138e-08,4.593807220458984375e+00,-1.647509820759296417e-02,-1.921606622636318207e-02
9.680000000000000000e+02,1.629999923706054688e+01,4.000000059604644775e-01,3.559389227802967071e-08,6.395666218850237783e-08,4.593806266784667969e+00,-1.647537201642990112e-02,-1.921480149030685425e-02
9.690000000000000000e+02,1.639999961853027344e+01,4.000000059604644775e-01,3.581288154919093358e-08,6.473344882351739216e-08,4.593804836273193359e+00,-1.647569611668586731e-02,-1.921411976218223572e-02
9.700000000000000000e+02,1.650000000000000000e+01,4.000000059604644775e-01,3.603187082035219646e-08,6.551500320028935676e-08,4.593803405761718750e+00,-1.647606864571571350e-02,-1.921283639967441559e-02
9.710000000000000000e+02,1.660000038146972656e+01,4.000000059604644775e-01,3.625085653879978054e-08,6.630130400253619882e-08,4.593801975250244141e+00,-1.647649705410003662e-02,-1.921129599213600159e-02
9.720000000000000000e+02,1.670000076293945312e+01,4.000000059604644775e-01,3.646984580996104341e-08,6.709237254653999116e-08,4.593799591064453125e+00,-1.647699438035488129e-02,-1.920945383608341217e-02
9.730000000000000000e+02,1.679999923706054688e+01,4.000000059604644775e-01,3.668883152840862749e-08,6.788818751601866097e-08,4.593797206878662109e+00,-1.647757552564144135e-02,-1.920687407255172729e-02
9.740000000000000000e+02,1.689999961853027344e+01,4.000000059604644775e-01,3.690782079956989037e-08,6.868877022725428105e-08,4.593794345855712891e+00,-1.647825166583061218e-02,-1.920465007424354553e-02
9.750000000000000000e+02,1.700000000000000000e+01,4.000000059604644775e-01,3.712680651801747445e-08,6.949411357481949381e-08,4.593791007995605469e+00,-1.647903397679328918e-02,-1.920156367123126984e-02
9.760000000000000000e+02,1.710000038146972656e+01,4.000000059604644775e-01,3.734579578917873732e-08,7.030421755871429923e-08,4.593787193298339844e+00,-1.647993549704551697e-02,-1.919791474938392639e-02
9.770000000000000000e+02,1.720000076293945312e+01,4.000000059604644775e-01,3.756478506034000020e-08,7.111908217893869733e-08,4.593782424926757812e+00,-1.648097671568393707e-02,-1.919361017644405365e-02
9.780000000000000000e+02,1.729999923706054688e+01,4.000000059604644775e-01,3.778376722607390548e-08,7.193868611921061529e-08,4.593777179718017578e+00,-1.648218929767608643e-02,-1.918815821409225464e-02
9.790000000000000000e+02,1.739999961853027344e+01,4.000000059604644775e-01,3.800275294452148955e-08,7.276307201209419873e-08,4.593770980834960938e+00,-1.648359745740890503e-02,-1.918258704245090485e-02
9.800000000000000000e+02,1.750000000000000000e+01,4.000000059604644775e-01,3.822174221568275243e-08,7.359221143588001723e-08,4.593763828277587891e+00,-1.648523099720478058e-02,-1.917560212314128876e-02
9.810000000000000000e+02,1.760000038146972656e+01,4.000000059604644775e-01,3.844072793413033651e-08,7.442611149599542841e-08,4.593755245208740234e+00,-1.648712716996669769e-02,-1.916741579771041870e-02
9.820000000000000000e+02,1.770000076293945312e+01,4.000000059604644775e-01,3.865971365257792058e-08,7.526477219244043226e-08,4.593745708465576172e+00,-1.648933626711368561e-02,-1.915783062577247620e-02
9.830000000000000000e+02,1.779999923706054688e+01,4.000000059604644775e-01,3.887869581831182586e-08,7.610817931436031358e-08,4.593734741210937500e+00,-1.649192534387111664e-02,-1.914623007178306580e-02
9.840000000000000000e+02,1.789999961853027344e+01,4.000000059604644775e-01,3.909768153675940994e-08,7.695635417803714518e-08,4.593722343444824219e+00,-1.649497263133525848e-02,-1.913349889218807220e-02
9.850000000000000000e+02,1.800000000000000000e+01,4.000000059604644775e-01,3.931666370249331521e-08,7.780929678347092704e-08,4.593708515167236328e+00,-1.649856939911842346e-02,-1.911816559731960297e-02
9.860000000000000000e+02,1.810000038146972656e+01,4.000000059604644775e-01,3.953564942094089929e-08,7.866699291980694397e-08,4.593692779541015625e+00,-1.650284044444561005e-02,-1.910023577511310577e-02
9.870000000000000000e+02,1.820000076293945312e+01,4.000000059604644775e-01,3.975463158667480457e-08,7.952944969247255358e-08,4.593675136566162109e+00,-1.650795340538024902e-02,-1.907925866544246674e-02
9.880000000000000000e+02,1.829999923706054688e+01,4.000000059604644775e-01,3.997361019969503104e-08,8.039665289061304065e-08,4.593655586242675781e+00,-1.651413552463054657e-02,-1.905431598424911499e-02
9.890000000000000000e+02,1.839999961853027344e+01,4.000000059604644775e-01,4.019259236542893632e-08,8.126863093593783560e-08,4.593634605407714844e+00,-1.652168296277523041e-02,-1.902592368423938751e-02
9.900000000000000000e+02,1.850000000000000000e+01,4.000000059604644775e-01,4.041157097844916279e-08,8.214536251216486562e-08,4.593612194061279297e+00,-1.653099060058593750e-02,-1.899215951561927795e-02
9.910000000000000000e+02,1.860000038146972656e+01,4.000000059604644775e-01,4.063055314418306807e-08,8.302685472472148831e-08,4.593588352203369141e+00,-1.654261723160743713e-02,-1.895249634981155396e-02
9.920000000000000000e+02,1.870000076293945312e+01,4.000000059604644775e-01,4.084953175720329455e-08,8.391310757360770367e-08,4.593564987182617188e+00,-1.655734144151210785e-02,-1.890584453940391541e-02
9.930000000000000000e+02,1.879999923706054688e+01,4.000000059604644775e-01,4.106850326479616342e-08,8.480409974254143890e-08,4.593542575836181641e+00,-1.657626591622829437e-02,-1.885055564343929291e-02
9.940000000000000000e+02,1.889999961853027344e+01,4.000000059604644775e-01,4.128748187781638990e-08,8.569986675865948200e-08,4.593523979187011719e+00,-1.660096086561679840e-02,-1.878636889159679413e-02
9.950000000000000000e+02,1.900000000000000000e+01,4.000000059604644775e-01,4.150645693812293757e-08,8.660038730567976017e-08,4.593513011932373047e+00,-1.663366332650184631e-02,-1.871068403124809265e-02
9.960000000000000000e+02,1.910000038146972656e+01,4.000000059604644775e-01,4.172543555114316405e-08,8.750566138360227342e-08,4.593515872955322266e+00,-1.667756214737892151e-02,-1.862273178994655609e-02
9.970000000000000000e+02,1.920000076293945312e+01,4.000000059604644775e-01,4.194441771687706932e-08,8.841569609785437933e-08,4.593541622161865234e+00,-1.673706993460655212e-02,-1.852245628833770752e-02
9.980000000000000000e+02,1.929999923706054688e+01,4.000000059604644775e-01,4.216339632989729580e-08,8.933044881587193231e-08,4.593604564666748047e+00,-1.681777462363243103e-02,-1.841241307556629181e-02
9.990000000000000000e+02,1.939999961853027344e+01,4.000000059604644775e-01,4.238238915377223748e-08,9.024996927564643556e-08,4.593725204467773438e+00,-1.692480780184268951e-02,-1.830390281975269318e-02
1.000000000000000000e+03,1.950000000000000000e+01,4.000000059604644775e-01,4.260138908307453676e-08,9.117422195004110108e-08,4.593929767608642578e+00,-1.705543696880340576e-02,-1.822221279144287109e-02
1.001000000000000000e+03,1.960000038146972656e+01,4.000000059604644775e-01,4.282041032865890884e-08,9.210319973362857127e-08,4.594241142272949219e+00,-1.717001199722290039e-02,-1.822682470083236694e-02
1.002000000000000000e+03,1.970000076293945312e+01,4.000000059604644775e-01,4.303944933781167492e-08,9.303688841555413092e-08,4.594651699066162109e+00,-1.710528694093227386e-02,-1.842766813933849335e-02
1.003000000000000000e+03,1.979999923706054688e+01,4.000000059604644775e-01,4.325849189967811981e-08,9.397524536325363442e-08,4.595094680786132812e+00,-1.629012078046798706e-02,-1.890298910439014435e-02
1.004000000000000000e+03,1.989999961853027344e+01,4.000000059604644775e-01,4.347752735611720709e-08,9.491833452557330020e-08,4.595484733581542969e+00,-1.421894319355487823e-02,-1.933177374303340912e-02
1.005000000000000000e+03,2.000000000000000000e+01,4.000000059604644775e-01,4.369653439084686397e-08,9.586620564050463145e-08,4.595642089843750000e+00,-1.153923198580741882e-02,-1.918754912912845612e-02
1.006000000000000000e+03,0.000000000000000000e+00,5.000000000000000000e-01,2.475411449642378421e-37,9.002619563279358075e-38,4.485533714294433594e+00,1.345660090446472168e+00,6.152369976043701172e-01
1.007000000000000000e+03,1.000000014901161194e-01,5.000000000000000000e-01,1.943731287035177502e-10,7.617220049160877693e-11,4.398211956024169922e+00,1.054587483406066895e+00,5.485362410545349121e-01
1.008000000000000000e+03,2.000000029802322388e-01,5.000000000000000000e-01,3.958727512465287646e-10,1.612943251183551752e-10,4.470828533172607422e+00,7.977868318557739258e-01,5.431674122810363770e-01
1.009000000000000000e+03,3.000000119209289551e-01,5.000000000000000000e-01,6.037595423613595358e-10,2.511608976352164291e-10,4.537662982940673828e+00,5.734689831733703613e-01,4.984334707260131836e-01
1.010000000000000000e+03,4.000000059604644775e-01,5.000000000000000000e-01,8.164194875703856269e-10,3.421678218540336047e-10,4.586989879608154297e+00,4.037715792655944824e-01,4.288442432880401611e-01
1.011000000000000000e+03,5.000000000000000000e-01,5.000000000000000000e-01,1.031969620868267157e-09,4.320721558315199218e-10,4.612090110778808594e+00,2.851214408874511719e-01,3.513988852500915527e-01
1.012000000000000000e+03,6.000000238418579102e-01,5.000000000000000000e-01,1.248839365253218148e-09,5.199594643734428701e-10,4.615485668182373047e+00,2.040780037641525269e-01,2.784217298030853271e-01
1.013000000000000000e+03,6.999999880790710449e-01,5.000000000000000000e-01,1.465962573554691062e-09,6.057971901896053168e-10,4.603920936584472656e+00,1.477675437927246094e-01,2.151397913694381714e-01
1.014000000000000000e+03,8.000000119209289551e-01,5.000000000000000000e-01,1.682735062402684889e-09,6.900029436707200148e-10,4.584587097167968750e+00,1.078848391771316528e-01,1.626450419425964355e-01
1.015000000000000000e+03,8.999999761581420898e-01,5.000000000000000000e-01,1.898863954963303513e-09,7.731633111518476653e-10,4.562417030334472656e+00,7.902453094720840454e-02,1.200309246778488159e-01
1.016000000000000000e+03,1.000000000000000000e+00,5.000000000000000000e-01,2.114246999695978957e-09,8.558970199246118682e-10,4.540359020233154297e+00,5.772567540407180786e-02,8.579955250024795532e-02
1.017000000000000000e+03,1.100000023841857910e+00,5.000000000000000000e-01,2.328887527269785096e-09,9.387925992143664189e-10,4.519968032836914062e+00,4.172335937619209290e-02,5.842851474881172180e-02
1.018000000000000000e+03,1.200000047683715820e+00,5.000000000000000000e-01,2.542844601549631989e-09,1.022385065496678180e-09,4.501946449279785156e+00,2.950768917798995972e-02,3.658245876431465149e-02
1.019000000000000000e+03,1.299999952316284180e+00,5.000000000000000000e-01,2.756201045173156672e-09,1.107149927292994107e-09,4.486507892608642578e+00,2.005051821470260620e-02,1.915829256176948547e-02
1.020000000000000000e+03,1.399999976158142090e+00,5.000000000000000000e-01,2.969049228696007958e-09,1.193506404817412658e-09,4.473602294921875000e+00,1.263778377324342728e-02,5.269526038318872452e-03
1.021000000000000000e+03,1.500000000000000000e+00,5.000000000000000000e-01,3.181478636093970636e-09,1.281821870868782298e-09,4.463045597076416016e+00,6.764284335076808929e-03,-5.787597969174385071e-03
1.022000000000000000e+03,1.600000023841857910e+00,5.000000000000000000e-01,3.393572978183101441e-09,1.372418179101941860e-09,4.454598426818847656e+00,2.066371496766805649e-03,-1.456972770392894745e-02
1.023000000000000000e+03,1.700000047683715820e+00,5.000000000000000000e-01,3.605407528084469959e-09,1.465577992298960908e-09,4.448006153106689453e+00,-1.721893087960779667e-03,-2.151734940707683563e-02
1.024000000000000000e+03,1.799999952316284180e+00,5.000000000000000000e-01,3.817048011001134000e-09,1.561549334283540702e-09,4.443019390106201172e+00,-4.797853063791990280e-03,-2.698007598519325256e-02
1.025000000000000000e+03,1.899999976158142090e+00,5.000000000000000000e-01,4.028553046708793772e-09,1.660551363080742249e-09,4.439408302307128906e+00,-7.309949956834316254e-03,-3.123672306537628174e-02
1.026000000000000000e+03,2.000000000000000000e+00,5.000000000000000000e-01,4.239971040931322932e-09,1.762777146474547862e-09,4.436964511871337891e+00,-9.371231310069561005e-03,-3.451062366366386414e-02
1.027000000000000000e+03,2.099999904632568359e+00,5.000000000000000000e-01,4.451343293965237535e-09,1.868397658810749817e-09,4.435503482818603516e+00,-1.106879953294992447e-02,-3.698178380727767944e-02
1.028000000000000000e+03,2.200000047683715820e+00,5.000000000000000000e-01,4.662705777036535437e-09,1.977565444732931610e-09,4.434862613677978516e+00,-1.247050054371356964e-02,-3.879612311720848083e-02
1.029000000000000000e+03,2.299999952316284180e+00,5.000000000000000000e-01,4.874086023676227342e-09,2.090414508160165497e-09,4.434900760650634766e+00,-1.362970471382141113e-02,-4.007231816649436951e-02
1.030000000000000000e+03,2.400000095367431641e+00,5.000000000000000000e-01,5.085508902880064852e-09,2.207066085446740544e-09,4.435496330261230469e+00,-1.458881422877311707e-02,-4.090782627463340759e-02
1.031000000000000000e+03,2.500000000000000000e+00,5.000000000000000000e-01,5.296992178216441971e-09,2.327626980047625693e-09,4.436543464660644531e+00,-1.538180094212293625e-02,-4.138255491852760315e-02
1.032000000000000000e+03,2.599999904632568359e+00,5.000000000000000000e-01,5.508552280986123151e-09,2.452193115232148557e-09,4.437952041625976562e+00,-1.603613235056400299e-02,-4.156280308961868286e-02
1.033000000000000000e+03,2.700000047683715820e+00,5.000000000000000000e-01,5.720200757508564493e-09,2.580850866351624973e-09,4.439644336700439453e+00,-1.657418534159660339e-02,-4.150351509451866150e-02
1.034000000000000000e+03,2.799999952316284180e+00,5.000000000000000000e-01,5.931946489567962999e-09,2.713676172660939301e-09,4.441555500030517578e+00,-1.701432466506958008e-02,-4.125032946467399597e-02
1.035000000000000000e+03,2.900000095367431641e+00,5.000000000000000000e-01,6.143796138502466420e-09,2.850738978210642927e-09,4.443628787994384766e+00,-1.737174391746520996e-02,-4.084166139364242554e-02
1.036000000000000000e+03,3.000000000000000000e+00,5.000000000000000000e-01,6.355754145204173255e-09,2.992099679133275458e-09,4.445816516876220703e+00,-1.765908673405647278e-02,-4.030937701463699341e-02
1.037000000000000000e+03,3.099999904632568359e+00,5.000000000000000000e-01,6.567822730119132757e-09,3.137814008624673079e-09,4.448079109191894531e+00,-1.788694784045219421e-02,-3.968051075935363770e-02
1.038000000000000000e+03,3.200000047683715820e+00,5.000000000000000000e-01,6.780004113693394174e-09,3.287931926720943920e-09,4.450382709503173828e+00,-1.806425862014293671e-02,-3.897766768932342529e-02
1.039000000000000000e+03,3.299999952316284180e+00,5.000000000000000000e-01,6.992296963659327957e-09,3.442496732120048364e-09,4.452699184417724609e+00,-1.819857954978942871e-02,-3.821973502635955811e-02
1.040000000000000000e+03,3.400000095367431641e+00,5.000000000000000000e-01,7.204701724106143956e-09,3.601549058984687690e-09,4.455005168914794922e+00,-1.829635910689830780e-02,-3.742288053035736084e-02
1.041000000000000000e+03,3.500000000000000000e+00,5.000000000000000000e-01,7.417215286409373221e-09,3.765123768317835129e-09,4.457281589508056641e+00,-1.836310699582099915e-02,-3.660036623477935791e-02
1.042000000000000000e+03,3.599999904632568359e+00,5.000000000000000000e-01,7.629835430122966500e-09,3.933252390453390035e-09,4.459513187408447266e+00,-1.840355992317199707e-02,-3.576358780264854431e-02
1.043000000000000000e+03,3.700000047683715820e+00,5.000000000000000000e-01,7.842560378890084394e-09,4.105964013234597587e-09,4.461686611175537109e+00,-1.842179521918296814e-02,-3.492196276783943176e-02
1.044000000000000000e+03,3.799999952316284180e+00,5.000000000000000000e-01,8.055384803640208702e-09,4.283283061567999539e-09,4.463793277740478516e+00,-1.842134073376655579e-02,-3.408319130539894104e-02
1.045000000000000000e+03,3.900000095367431641e+00,5.000000000000000000e-01,8.268306928016500024e-09,4.465233072181717944e-09,4.465824127197265625e+00,-1.840525120496749878e-02,-3.325393795967102051e-02
1.046000000000000000e+03,4.000000000000000000e+00,5.000000000000000000e-01,8.481320534770020458e-09,4.651832252733356654e-09,4.467774868011474609e+00,-1.837617903947830200e-02,-3.243933990597724915e-02
1.047000000000000000e+03,4.099999904632568359e+00,5.000000000000000000e-01,8.694422071187091206e-09,4.843099254969729373e-09,4.469640254974365234e+00,-1.833642646670341492e-02,-3.164386004209518433e-02
1.048000000000000000e+03,4.199999809265136719e+00,5.000000000000000000e-01,8.907607984554033465e-09,5.039049622013180851e-09,4.471418857574462891e+00,-1.828799955546855927e-02,-3.087091073393821716e-02
1.049000000000000000e+03,4.300000190734863281e+00,5.000000000000000000e-01,9.120873833978748735e-09,5.239698008807636143e-09,4.473108291625976562e+00,-1.823263615369796753e-02,-3.012329526245594025e-02
1.050000000000000000e+03,4.400000095367431641e+00,5.000000000000000000e-01,9.334215178569138516e-09,5.445054629404921798e-09,4.474708557128906250e+00,-1.817184872925281525e-02,-2.940284274518489838e-02
1.051000000000000000e+03,4.500000000000000000e+00,5.000000000000000000e-01,9.547626689254684607e-09,5.655131474213703768e-09,4.476220607757568359e+00,-1.810695230960845947e-02,-2.871134877204895020e-02
1.052000000000000000e+03,4.599999904632568359e+00,5.000000000000000000e-01,9.761105701500127907e-09,5.869937425018179056e-09,4.477644920349121094e+00,-1.803908310830593109e-02,-2.804979309439659119e-02
1.053000000000000000e+03,4.699999809265136719e+00,5.000000000000000000e-01,9.974646886234950216e-09,6.089480475424124961e-09,4.478982925415039062e+00,-1.796922087669372559e-02,-2.741883881390094757e-02
1.054000000000000000e+03,4.800000190734863281e+00,5.000000000000000000e-01,1.018824757892389243e-08,6.313768619037318786e-09,4.480237483978271484e+00,-1.789821311831474304e-02,-2.681888826191425323e-02
1.055000000000000000e+03,4.900000095367431641e+00,5.000000000000000000e-01,1.040190333867485606e-08,6.542805852660649180e-09,4.481410980224609375e+00,-1.782677695155143738e-02,-2.624971047043800354e-02
1.056000000000000000e+03,5.000000000000000000e+00,5.000000000000000000e-01,1.061560883641732289e-08,6.776598837632263894e-09,4.482506275177001953e+00,-1.775553449988365173e-02,-2.571134828031063080e-02
1.057000000000000000e+03,5.099999904632568359e+00,5.000000000000000000e-01,1.082936318397287323e-08,7.015151570755051580e-09,4.483526229858398438e+00,-1.768500357866287231e-02,-2.520329132676124573e-02
1.058000000000000000e+03,5.199999809265136719e+00,5.000000000000000000e-01,1.104316016409256918e-08,7.258467604742691037e-09,4.484474182128906250e+00,-1.761562377214431763e-02,-2.472494542598724365e-02
1.059000000000000000e+03,5.300000190734863281e+00,5.000000000000000000e-01,1.125700066495483043e-08,7.506550936398070917e-09,4.485352993011474609e+00,-1.754775643348693848e-02,-2.427565678954124451e-02
1.060000000000000000e+03,5.400000095367431641e+00,5.000000000000000000e-01,1.147087669295387968e-08,7.759402897988820769e-09,4.486166954040527344e+00,-1.748169586062431335e-02,-2.385430969297885895e-02
1.061000000000000000e+03,5.500000000000000000e+00,5.000000000000000000e-01,1.168478824808971694e-08,8.017026154050199693e-09,4.486918449401855469e+00,-1.741768606007099152e-02,-2.346023358404636383e-02
1.062000000000000000e+03,5.599999904632568359e+00,5.000000000000000000e-01,1.189873177764866341e-08,8.279421592760627391e-09,4.487611293792724609e+00,-1.735591143369674683e-02,-2.309232950210571289e-02
1.063000000000000000e+03,5.699999809265136719e+00,5.000000000000000000e-01,1.211270461709545998e-08,8.546590990476943261e-09,4.488248825073242188e+00,-1.729651726782321930e-02,-2.274953946471214294e-02
1.064000000000000000e+03,5.800000190734863281e+00,5.000000000000000000e-01,1.232670587825168695e-08,8.818537011734406406e-09,4.488834857940673828e+00,-1.723960787057876587e-02,-2.243085019290447235e-02
1.065000000000000000e+03,5.900000095367431641e+00,5.000000000000000000e-01,1.254073112022524583e-08,9.095257880176177423e-09,4.489371299743652344e+00,-1.718524843454360962e-02,-2.213487960398197174e-02
1.066000000000000000e+03,6.000000000000000000e+00,5.000000000000000000e-01,1.275477856665929721e-08,9.376754483980676014e-09,4.489862442016601562e+00,-1.713348366320133209e-02,-2.186076715588569641e-02
1.067000000000000000e+03,6.099999904632568359e+00,5.000000000000000000e-01,1.296884644119700170e-08,9.663026823147902178e-09,4.490310668945312500e+00,-1.708432659506797791e-02,-2.160729654133319855e-02
1.068000000000000000e+03,6.199999809265136719e+00,5.000000000000000000e-01,1.318293385565993958e-08,9.954076674034695316e-09,4.490719318389892578e+00,-1.703776791691780090e-02,-2.137335017323493958e-02
1.069000000000000000e+03,6.300000190734863281e+00,5.000000000000000000e-01,1.339703814551285177e-08,1.024990314846263573e-08,4.491090774536132812e+00,-1.699378341436386108e-02,-2.115791290998458862e-02
1.070000000000000000e+03,6.400000095367431641e+00,5.000000000000000000e-01,1.361115842257731856e-08,1.055050535825330371e-08,4.491427898406982422e+00,-1.695232838392257690e-02,-2.095963060855865479e-02
1.071000000000000000e+03,6.500000000000000000e+00,5.000000000000000000e-01,1.382529113413966115e-08,1.085588241522827957e-08,4.491733074188232422e+00,-1.691334880888462067e-02,-2.077772095799446106e-02
1.072000000000000000e+03,6.599999904632568359e+00,5.000000000000000000e-01,1.403943716837829925e-08,1.116603520756598300e-08,4.492008686065673828e+00,-1.687678135931491852e-02,-2.061107382178306580e-02
1.073000000000000000e+03,6.699999809265136719e+00,5.000000000000000000e-01,1.425359474893639344e-08,1.148096195890957461e-08,4.492257118225097656e+00,-1.684254594147205353e-02,-2.045869827270507812e-02
1.074000000000000000e+03,6.800000190734863281e+00,5.000000000000000000e-01,1.446776387581394374e-08,1.180066533379431348e-08,4.492480278015136719e+00,-1.681056432425975800e-02,-2.031972818076610565e-02
1.075000000000000000e+03,6.900000095367431641e+00,5.000000000000000000e-01,1.468194010811885164e-08,1.212514089132810113e-08,4.492681026458740234e+00,-1.678074896335601807e-02,-2.019298262894153595e-02
1.076000000000000000e+03,7.000000000000000000e+00,5.000000000000000000e-01,1.489612522220795654e-08,1.245438951968935726e-08,4.492859840393066406e+00,-1.675300858914852142e-02,-2.007785625755786896e-02
1.077000000000000000e+03,7.099999904632568359e+00,5.000000000000000000e-01,1.511031655354599934e-08,1.278841033069966215e-08,4.493020057678222656e+00,-1.672725006937980652e-02,-1.997343078255653381e-02
1.078000000000000000e+03,7.199999809265136719e+00,5.000000000000000000e-01,1.532451499031139974e-08,1.312720332435901582e-08,4.493162155151367188e+00,-1.670337654650211334e-02,-1.987891271710395813e-02
1.079000000000000000e+03,7.300000190734863281e+00,5.000000000000000000e-01,1.553872053250415775e-08,1.347076850066741827e-08,4.493288516998291016e+00,-1.668129488825798035e-02,-1.979363709688186646e-02
1.080000000000000000e+03,7.400000095367431641e+00,5.000000000000000000e-01,1.575292962741059455e-08,1.381910230691119068e-08,4.493399620056152344e+00,-1.666091009974479675e-02,-1.971662789583206177e-02
1.081000000000000000e+03,7.500000000000000000e+00,5.000000000000000000e-01,1.596714405138754955e-08,1.417220651944717247e-08,4.493497848510742188e+00,-1.664212532341480255e-02,-1.964748278260231018e-02
1.082000000000000000e+03,7.599999904632568359e+00,5.000000000000000000e-01,1.618136202807818336e-08,1.453007936191852423e-08,4.493583679199218750e+00,-1.662485115230083466e-02,-1.958548463881015778e-02
1.083000000000000000e+03,7.699999809265136719e+00,5.000000000000000000e-01,1.639558178112565656e-08,1.489272172250366566e-08,4.493659019470214844e+00,-1.660899445414543152e-02,-1.953004300594329834e-02
1.084000000000000000e+03,7.800000190734863281e+00,5.000000000000000000e-01,1.660980686324364797e-08,1.526013271302417706e-08,4.493723869323730469e+00,-1.659446768462657928e-02,-1.948069036006927490e-02
1.085000000000000000e+03,7.900000095367431641e+00,5.000000000000000000e-01,1.682403372171847877e-08,1.563230966894479934e-08,4.493780136108398438e+00,-1.658118516206741333e-02,-1.943664066493511200e-02
1.086000000000000000e+03,8.000000000000000000e+00,5.000000000000000000e-01,1.703826058019330958e-08,1.600925436662237189e-08,4.493828773498535156e+00,-1.656906493008136749e-02,-1.939767785370349884e-02
1.087000000000000000e+03,8.100000381469726562e+00,5.000000000000000000e-01,1.725249276773865859e-08,1.639096502970005531e-08,4.493869781494140625e+00,-1.655802689492702484e-02,-1.936335861682891846e-02
1.088000000000000000e+03,8.199999809265136719e+00,5.000000000000000000e-01,1.746672317892716819e-08,1.677743988182101020e-08,4.493904590606689453e+00,-1.654799468815326691e-02,-1.933289505541324615e-02
1.089000000000000000e+03,8.300000190734863281e+00,5.000000000000000000e-01,1.768095714282935660e-08,1.716868247569891537e-08,4.493933677673339844e+00,-1.653889752924442291e-02,-1.930654048919677734e-02
1.090000000000000000e+03,8.399999618530273438e+00,5.000000000000000000e-01,1.789518933037470561e-08,1.756468570590641320e-08,4.493957996368408203e+00,-1.653066650032997131e-02,-1.928320527076721191e-02
1.091000000000000000e+03,8.500000000000000000e+00,5.000000000000000000e-01,1.810942507063373341e-08,1.796545845422770071e-08,4.493977546691894531e+00,-1.652323640882968903e-02,-1.926329173147678375e-02
1.092000000000000000e+03,8.600000381469726562e+00,5.000000000000000000e-01,1.832366258724960062e-08,1.837099539159225969e-08,4.493993282318115234e+00,-1.651654206216335297e-02,-1.924594305455684662e-02
1.093000000000000000e+03,8.699999809265136719e+00,5.000000000000000000e-01,1.853789655115178903e-08,1.878129118892957194e-08,4.494005203247070312e+00,-1.651052571833133698e-02,-1.923087798058986664e-02
1.094000000000000000e+03,8.800000190734863281e+00,5.000000000000000000e-01,1.875213406776765623e-08,1.919635295166699507e-08,4.494014739990234375e+00,-1.650513708591461182e-02,-1.921838894486427307e-02
1.095000000000000000e+03,8.899999618530273438e+00,5.000000000000000000e-01,1.896636980802668404e-08,1.961617535073401086e-08,4.494020938873291016e+00,-1.650031842291355133e-02,-1.920750737190246582e-02
1.096000000000000000e+03,9.000000000000000000e+00,5.000000000000000000e-01,1.918060732464255125e-08,2.004076193884429813e-08,4.494025707244873047e+00,-1.649602502584457397e-02,-1.919874921441078186e-02
1.097000000000000000e+03,9.100000381469726562e+00,5.000000000000000000e-01,1.939484484125841846e-08,2.047011271599785687e-08,4.494027614593505859e+00,-1.649221032857894897e-02,-1.919136568903923035e-02
1.098000000000000000e+03,9.199999809265136719e+00,5.000000000000000000e-01,1.960908058151744626e-08,2.090422057676732948e-08,4.494028568267822266e+00,-1.648883149027824402e-02,-1.918517984449863434e-02
1.099000000000000000e+03,9.300000190734863281e+00,5.000000000000000000e-01,1.982331809813331347e-08,2.134309440293691296e-08,4.494027614593505859e+00,-1.648585125803947449e-02,-1.918057538568973541e-02
1.100000000000000000e+03,9.399999618530273438e+00,5.000000000000000000e-01,2.003755383839234128e-08,2.178672531272241031e-08,4.494025707244873047e+00,-1.648323051631450653e-02,-1.917667500674724579e-02
1.101000000000000000e+03,9.500000000000000000e+00,5.000000000000000000e-01,2.025179135500820848e-08,2.223512218790801853e-08,4.494022846221923828e+00,-1.648093573749065399e-02,-1.917407102882862091e-02
1.102000000000000000e+03,9.600000381469726562e+00,5.000000000000000000e-01,2.046602887162407569e-08,2.268827969942321943e-08,4.494019031524658203e+00,-1.647893711924552917e-02,-1.917209662497043610e-02
1.103000000000000000e+03,9.699999809265136719e+00,5.000000000000000000e-01,2.068026283552626410e-08,2.314619429455433419e-08,4.494014739990234375e+00,-1.647720485925674438e-02,-1.917064376175403595e-02
1.104000000000000000e+03,9.800000190734863281e+00,5.000000000000000000e-01,2.089450035214213131e-08,2.360887307872872043e-08,4.494009494781494141e+00,-1.647571101784706116e-02,-1.917015947401523590e-02
1.105000000000000000e+03,9.899999618530273438e+00,5.000000000000000000e-01,2.110873431604431971e-08,2.407630717016218114e-08,4.494004249572753906e+00,-1.647443324327468872e-02,-1.916982606053352356e-02
1.106000000000000000e+03,1.000000000000000000e+01,5.000000000000000000e-01,2.132297005630334752e-08,2.454850722699575272e-08,4.493998527526855469e+00,-1.647334545850753784e-02,-1.917029544711112976e-02
1.107000000000000000e+03,1.010000038146972656e+01,5.000000000000000000e-01,2.153720579656237533e-08,2.502546614380207757e-08,4.493992805480957031e+00,-1.647243089973926544e-02,-1.917095482349395752e-02
1.108000000000000000e+03,1.019999980926513672e+01,5.000000000000000000e-01,2.175143976046456373e-08,2.550718214422431629e-08,4.493987083435058594e+00,-1.647166907787322998e-02,-1.917172223329544067e-02
1.109000000000000000e+03,1.030000019073486328e+01,5.000000000000000000e-01,2.196567550072359154e-08,2.599366233368982648e-08,4.493980884552001953e+00,-1.647104322910308838e-02,-1.917312294244766235e-02
1.110000000000000000e+03,1.039999961853027344e+01,5.000000000000000000e-01,2.217990768826894055e-08,2.648489605405757175e-08,4.493975162506103516e+00,-1.647053658962249756e-02,-1.917434111237525940e-02
1.111000000000000000e+03,1.050000000000000000e+01,5.000000000000000000e-01,2.239414342852796835e-08,2.698089573982542788e-08,4.493968963623046875e+00,-1.647013425827026367e-02,-1.917610131204128265e-02
1.112000000000000000e+03,1.060000038146972656e+01,5.000000000000000000e-01,2.260837739243015676e-08,2.748165428556603729e-08,4.493963241577148438e+00,-1.646982505917549133e-02,-1.917779073119163513e-02
1.113000000000000000e+03,1.069999980926513672e+01,5.000000000000000000e-01,2.282260957997550577e-08,2.798716813856572116e-08,4.493957519531250000e+00,-1.646959595382213593e-02,-1.917937584221363068e-02
1.114000000000000000e+03,1.080000019073486328e+01,5.000000000000000000e-01,2.303684354387769417e-08,2.849744618060867651e-08,4.493952274322509766e+00,-1.646943762898445129e-02,-1.918140240013599396e-02
1.115000000000000000e+03,1.089999961853027344e+01,5.000000000000000000e-01,2.325107395506620378e-08,2.901247952991070633e-08,4.493946552276611328e+00,-1.646933890879154205e-02,-1.918308064341545105e-02
1.116000000000000000e+03,1.100000000000000000e+01,5.000000000000000000e-01,2.346530791896839219e-08,2.953227706825600762e-08,4.493941307067871094e+00,-1.646929420530796051e-02,-1.918515563011169434e-02
1.117000000000000000e+03,1.110000038146972656e+01,5.000000000000000000e-01,2.367954010651374119e-08,3.005683169021722279e-08,4.493936538696289062e+00,-1.646929234266281128e-02,-1.918703503906726837e-02
1.118000000000000000e+03,1.119999980926513672e+01,5.000000000000000000e-01,2.389377229405909020e-08,3.058614339579435182e-08,4.493931770324707031e+00,-1.646932773292064667e-02,-1.918870210647583008e-02
1.119000000000000000e+03,1.130000019073486328e+01,5.000000000000000000e-01,2.410800448160443921e-08,3.112021929041475232e-08,4.493927478790283203e+00,-1.646939478814601898e-02,-1.919072307646274567e-02
1.120000000000000000e+03,1.139999961853027344e+01,5.000000000000000000e-01,2.432223489279294881e-08,3.165904871593738790e-08,4.493923187255859375e+00,-1.646948792040348053e-02,-1.919231563806533813e-02
1.121000000000000000e+03,1.150000000000000000e+01,5.000000000000000000e-01,2.453646708033829782e-08,3.220263877778961614e-08,4.493918895721435547e+00,-1.646960154175758362e-02,-1.919424347579479218e-02
1.122000000000000000e+03,1.160000038146972656e+01,5.000000000000000000e-01,2.475069926788364683e-08,3.275099302868511586e-08,4.493915081024169922e+00,-1.646973378956317902e-02,-1.919592171907424927e-02
1.123000000000000000e+03,1.169999980926513672e+01,5.000000000000000000e-01,2.496492790271531703e-08,3.330410081048285065e-08,4.493911743164062500e+00,-1.646987721323966980e-02,-1.919734477996826172e-02
1.124000000000000000e+03,1.180000019073486328e+01,5.000000000000000000e-01,2.517916009026066604e-08,3.386196922861017811e-08,4.493908405303955078e+00,-1.647003181278705597e-02,-1.919908635318279266e-02
1.125000000000000000e+03,1.189999961853027344e+01,5.000000000000000000e-01,2.539339050144917564e-08,3.442459473035341944e-08,4.493905067443847656e+00,-1.647019200026988983e-02,-1.920037344098091125e-02
1.126000000000000000e+03,1.200000000000000000e+01,5.000000000000000000e-01,2.560762091263768525e-08,3.499198442113993224e-08,4.493902206420898438e+00,-1.647035777568817139e-02,-1.920197531580924988e-02
1.127000000000000000e+03,1.210000038146972656e+01,5.000000000000000000e-01,2.582185310018303426e-08,3.556413119554235891e-08,4.493899345397949219e+00,-1.647052541375160217e-02,-1.920331455767154694e-02
1.128000000000000000e+03,1.219999980926513672e+01,5.000000000000000000e-01,2.603608173501470446e-08,3.614103505356069945e-08,4.493896961212158203e+00,-1.647069491446018219e-02,-1.920438930392265320e-02
1.129000000000000000e+03,1.230000019073486328e+01,5.000000000000000000e-01,2.625031214620321407e-08,3.672269954790863267e-08,4.493894577026367188e+00,-1.647086255252361298e-02,-1.920577697455883026e-02
1.130000000000000000e+03,1.239999961853027344e+01,5.000000000000000000e-01,2.646454255739172368e-08,3.730912112587247975e-08,4.493892192840576172e+00,-1.647102832794189453e-02,-1.920671015977859497e-02
1.131000000000000000e+03,1.250000000000000000e+01,5.000000000000000000e-01,2.667877296858023328e-08,3.790030334016591951e-08,4.493890285491943359e+00,-1.647119037806987762e-02,-1.920795999467372894e-02
1.132000000000000000e+03,1.260000038146972656e+01,5.000000000000000000e-01,2.689300337976874289e-08,3.849624974350263074e-08,4.493888378143310547e+00,-1.647134870290756226e-02,-1.920895278453826904e-02
1.133000000000000000e+03,1.269999980926513672e+01,5.000000000000000000e-01,2.710723201460041309e-08,3.909694612502789823e-08,4.493886470794677734e+00,-1.647150330245494843e-02,-1.920968666672706604e-02
1.134000000000000000e+03,1.280000019073486328e+01,5.000000000000000000e-01,2.732146242578892270e-08,3.970240669559643720e-08,4.493885040283203125e+00,-1.647165045142173767e-02,-1.921074464917182922e-02
1.135000000000000000e+03,1.289999961853027344e+01,5.000000000000000000e-01,2.753569106062059291e-08,4.031262079706721124e-08,4.493883609771728516e+00,-1.647179387509822845e-02,-1.921135745942592621e-02
1.136000000000000000e+03,1.300000000000000000e+01,5.000000000000000000e-01,2.774992147180910251e-08,4.092760264029493555e-08,4.493882179260253906e+00,-1.647192984819412231e-02,-1.921229809522628784e-02
1.137000000000000000e+03,1.310000038146972656e+01,5.000000000000000000e-01,2.796415188299761212e-08,4.154734156713857374e-08,4.493880748748779297e+00,-1.647206023335456848e-02,-1.921299286186695099e-02
1.138000000000000000e+03,1.319999980926513672e+01,5.000000000000000000e-01,2.817838051782928233e-08,4.217183047217076819e-08,4.493879795074462891e+00,-1.647218316793441772e-02,-1.921344362199306488e-02
1.139000000000000000e+03,1.330000019073486328e+01,5.000000000000000000e-01,2.839261092901779193e-08,4.280109067167359171e-08,4.493878841400146484e+00,-1.647230051457881927e-02,-1.921423152089118958e-02
1.140000000000000000e+03,1.339999961853027344e+01,5.000000000000000000e-01,2.860683956384946214e-08,4.343509729665129271e-08,4.493877887725830078e+00,-1.647241227328777313e-02,-1.921458728611469269e-02
1.141000000000000000e+03,1.350000000000000000e+01,5.000000000000000000e-01,2.882106997503797174e-08,4.407387521609962278e-08,4.493876934051513672e+00,-1.647251658141613007e-02,-1.921528391540050507e-02
1.142000000000000000e+03,1.360000038146972656e+01,5.000000000000000000e-01,2.903530038622648135e-08,4.471740666645018791e-08,4.493876457214355469e+00,-1.647261530160903931e-02,-1.921574771404266357e-02
1.143000000000000000e+03,1.369999980926513672e+01,5.000000000000000000e-01,2.924952902105815156e-08,4.536569520041666692e-08,4.493875503540039062e+00,-1.647270843386650085e-02,-1.921598240733146667e-02
1.144000000000000000e+03,1.380000019073486328e+01,5.000000000000000000e-01,2.946375765588982176e-08,4.601874792342641740e-08,4.493875026702880859e+00,-1.647279784083366394e-02,-1.921656355261802673e-02
1.145000000000000000e+03,1.389999961853027344e+01,5.000000000000000000e-01,2.967798629072149197e-08,4.667655062462472415e-08,4.493874549865722656e+00,-1.647287979722023010e-02,-1.921672746539115906e-02
1.146000000000000000e+03,1.400000000000000000e+01,5.000000000000000000e-01,2.989221670191000158e-08,4.733912106757998117e-08,4.493874073028564453e+00,-1.647295802831649780e-02,-1.921724341809749603e-02
1.147000000000000000e+03,1.410000038146972656e+01,5.000000000000000000e-01,3.010644533674167178e-08,4.800645214686483087e-08,4.493873596191406250e+00,-1.647303253412246704e-02,-1.921753771603107452e-02
1.148000000000000000e+03,1.419999980926513672e+01,5.000000000000000000e-01,3.032067397157334199e-08,4.867853320433823683e-08,4.493873119354248047e+00,-1.647310331463813782e-02,-1.921761035919189453e-02
1.149000000000000000e+03,1.430000019073486328e+01,5.000000000000000000e-01,3.053490615911869099e-08,4.935538200356859306e-08,4.493873119354248047e+00,-1.647317223250865936e-02,-1.921803876757621765e-02
1.150000000000000000e+03,1.439999961853027344e+01,5.000000000000000000e-01,3.074913124123668240e-08,5.003698078098750557e-08,4.493872642517089844e+00,-1.647323742508888245e-02,-1.921805739402770996e-02
1.151000000000000000e+03,1.450000000000000000e+01,5.000000000000000000e-01,3.096336342878203141e-08,5.072334730016336835e-08,4.493872165679931641e+00,-1.647330261766910553e-02,-1.921843551099300385e-02
1.152000000000000000e+03,1.460000038146972656e+01,5.000000000000000000e-01,3.117759206361370161e-08,5.141447090295514499e-08,4.493872165679931641e+00,-1.647336781024932861e-02,-1.921859569847583771e-02
1.153000000000000000e+03,1.469999980926513672e+01,5.000000000000000000e-01,3.139182069844537182e-08,5.211034803664915671e-08,4.493871688842773438e+00,-1.647343300282955170e-02,-1.921853609383106232e-02
1.154000000000000000e+03,1.480000019073486328e+01,5.000000000000000000e-01,3.160605288599072082e-08,5.281099291210011870e-08,4.493871688842773438e+00,-1.647350005805492401e-02,-1.921883597970008850e-02
1.155000000000000000e+03,1.489999961853027344e+01,5.000000000000000000e-01,3.182027796810871223e-08,5.351638776573963696e-08,4.493871212005615234e+00,-1.647357270121574402e-02,-1.921872422099113464e-02
1.156000000000000000e+03,1.500000000000000000e+01,5.000000000000000000e-01,3.203451015565406124e-08,5.422654680842242669e-08,4.493871212005615234e+00,-1.647364720702171326e-02,-1.921896636486053467e-02
1.157000000000000000e+03,1.510000038146972656e+01,5.000000000000000000e-01,3.224873879048573144e-08,5.494147004014848790e-08,4.493871212005615234e+00,-1.647373102605342865e-02,-1.921898312866687775e-02
1.158000000000000000e+03,1.519999980926513672e+01,5.000000000000000000e-01,3.246296742531740165e-08,5.566113969734942657e-08,4.493870735168457031e+00,-1.647382229566574097e-02,-1.921877264976501465e-02
1.159000000000000000e+03,1.530000019073486328e+01,5.000000000000000000e-01,3.267719606014907185e-08,5.638558064902099431e-08,4.493870735168457031e+00,-1.647392660379409790e-02,-1.921890676021575928e-02
1.160000000000000000e+03,1.539999961853027344e+01,5.000000000000000000e-01,3.289142469498074206e-08,5.711477157888111833e-08,4.493870258331298828e+00,-1.647404395043849945e-02,-1.921860873699188232e-02
1.161000000000000000e+03,1.550000000000000000e+01,5.000000000000000000e-01,3.310565332981241227e-08,5.784872669778451382e-08,4.493870258331298828e+00,-1.647417806088924408e-02,-1.921864412724971771e-02
1.162000000000000000e+03,1.560000038146972656e+01,5.000000000000000000e-01,3.331988551735776127e-08,5.858744245301750198e-08,4.493869781494140625e+00,-1.647433452308177948e-02,-1.921842433512210846e-02
1.163000000000000000e+03,1.569999980926513672e+01,5.000000000000000000e-01,3.353411415218943148e-08,5.933091173915272520e-08,4.493869781494140625e+00,-1.647451519966125488e-02,-1.921794004738330841e-02
1.164000000000000000e+03,1.580000019073486328e+01,5.000000000000000000e-01,3.374834278702110169e-08,6.007914521433121990e-08,4.493869304656982422e+00,-1.647472567856311798e-02,-1.921775564551353455e-02
1.165000000000000000e+03,1.589999961853027344e+01,5.000000000000000000e-01,3.396257142185277189e-08,6.083212866769827087e-08,4.493868827819824219e+00,-1.647497341036796570e-02,-1.921708695590496063e-02
1.166000000000000000e+03,1.600000000000000000e+01,5.000000000000000000e-01,3.417680005668444210e-08,6.158987986282227212e-08,4.493868350982666016e+00,-1.647526212036609650e-02,-1.921668834984302521e-02
1.167000000000000000e+03,1.610000038146972656e+01,5.000000000000000000e-01,3.439103224422979110e-08,6.235239169427586603e-08,4.493867397308349609e+00,-1.647559925913810730e-02,-1.921596005558967590e-02
1.168000000000000000e+03,1.620000076293945312e+01,5.000000000000000000e-01,3.460526087906146131e-08,6.311966416205905261e-08,4.493866920471191406e+00,-1.647599227726459503e-02,-1.921506971120834351e-02
1.169000000000000000e+03,1.629999923706054688e+01,5.000000000000000000e-01,3.481948596117945272e-08,6.389167594988975907e-08,4.493865966796875000e+00,-1.647645421326160431e-02,-1.921360753476619720e-02
1.170000000000000000e+03,1.639999961853027344e+01,5.000000000000000000e-01,3.503371459601112292e-08,6.466846969033213099e-08,4.493865013122558594e+00,-1.647699438035488129e-02,-1.921269111335277557e-02
1.171000000000000000e+03,1.650000000000000000e+01,5.000000000000000000e-01,3.524794678355647193e-08,6.545001696167673799e-08,4.493864059448242188e+00,-1.647762581706047058e-02,-1.921113394200801849e-02
1.172000000000000000e+03,1.660000038146972656e+01,5.000000000000000000e-01,3.546217541838814213e-08,6.623632486935093766e-08,4.493862628936767578e+00,-1.647835783660411835e-02,-1.920927315950393677e-02
1.173000000000000000e+03,1.670000076293945312e+01,5.000000000000000000e-01,3.567640405321981234e-08,6.702739341335473000e-08,4.493860721588134766e+00,-1.647921092808246613e-02,-1.920705847442150116e-02
1.174000000000000000e+03,1.679999923706054688e+01,5.000000000000000000e-01,3.589062913533780375e-08,6.782320127740604221e-08,4.493858814239501953e+00,-1.648020558059215546e-02,-1.920404657721519470e-02
1.175000000000000000e+03,1.689999961853027344e+01,5.000000000000000000e-01,3.610486132288315275e-08,6.862378398864166229e-08,4.493856906890869141e+00,-1.648136042058467865e-02,-1.920132525265216827e-02
1.176000000000000000e+03,1.700000000000000000e+01,5.000000000000000000e-01,3.631908995771482296e-08,6.942913444163423264e-08,4.493854522705078125e+00,-1.648270338773727417e-02,-1.919766329228878021e-02
1.177000000000000000e+03,1.710000038146972656e+01,5.000000000000000000e-01,3.653331859254649316e-08,7.023923842552903807e-08,4.493851184844970703e+00,-1.648425869643688202e-02,-1.919335499405860901e-02
1.178000000000000000e+03,1.720000076293945312e+01,5.000000000000000000e-01,3.674754722737816337e-08,7.105410304575343616e-08,4.493847846984863281e+00,-1.648606173694133759e-02,-1.918829791247844696e-02
1.179000000000000000e+03,1.729999923706054688e+01,5.000000000000000000e-01,3.696177230949615478e-08,7.187370698602535413e-08,4.493844032287597656e+00,-1.648815721273422241e-02,-1.918199099600315094e-02
1.180000000000000000e+03,1.739999961853027344e+01,5.000000000000000000e-01,3.717600094432782498e-08,7.269808577348157996e-08,4.493839740753173828e+00,-1.649058796465396881e-02,-1.917545311152935028e-02
1.181000000000000000e+03,1.750000000000000000e+01,5.000000000000000000e-01,3.739022957915949519e-08,7.352723230269475607e-08,4.493834972381591797e+00,-1.649340987205505371e-02,-1.916737668216228485e-02
1.182000000000000000e+03,1.760000038146972656e+01,5.000000000000000000e-01,3.760445821399116539e-08,7.436113236281016725e-08,4.493829250335693359e+00,-1.649668999016284943e-02,-1.915797032415866852e-02
1.183000000000000000e+03,1.770000076293945312e+01,5.000000000000000000e-01,3.781868684882283560e-08,7.519979305925517110e-08,4.493823051452636719e+00,-1.650050841271877289e-02,-1.914702914655208588e-02
1.184000000000000000e+03,1.779999923706054688e+01,5.000000000000000000e-01,3.803290837822714821e-08,7.604319307574769482e-08,4.493816375732421875e+00,-1.650496758520603180e-02,-1.913393661379814148e-02
1.185000000000000000e+03,1.789999961853027344e+01,5.000000000000000000e-01,3.824713701305881841e-08,7.689137504485188401e-08,4.493808746337890625e+00,-1.651018857955932617e-02,-1.911957934498786926e-02
1.186000000000000000e+03,1.800000000000000000e+01,5.000000000000000000e-01,3.846136564789048862e-08,7.774431054485830828e-08,4.493800640106201172e+00,-1.651632040739059448e-02,-1.910250261425971985e-02
1.187000000000000000e+03,1.810000038146972656e+01,5.000000000000000000e-01,3.867559073000848002e-08,7.860201378662168281e-08,4.493792057037353516e+00,-1.652355492115020752e-02,-1.908274181187152863e-02
1.188000000000000000e+03,1.820000076293945312e+01,5.000000000000000000e-01,3.888981936484015023e-08,7.946447055928729242e-08,4.493782997131347656e+00,-1.653213612735271454e-02,-1.905990205705165863e-02
1.189000000000000000e+03,1.829999923706054688e+01,5.000000000000000000e-01,3.910404089424446283e-08,8.033166665200042189e-08,4.493773937225341797e+00,-1.654237881302833557e-02,-1.903315074741840363e-02
1.190000000000000000e+03,1.839999961853027344e+01,5.000000000000000000e-01,3.931826597636245424e-08,8.120364469732521684e-08,4.493765354156494141e+00,-1.655468530952930450e-02,-1.900314912199974060e-02
1.191000000000000000e+03,1.850000000000000000e+01,5.000000000000000000e-01,3.953249461119412445e-08,8.208037627355224686e-08,4.493757724761962891e+00,-1.656958274543285370e-02,-1.896820217370986938e-02
1.192000000000000000e+03,1.860000038146972656e+01,5.000000000000000000e-01,3.974671969331211585e-08,8.296186848610886955e-08,4.493752479553222656e+00,-1.658776029944419861e-02,-1.892812922596931458e-02
1.193000000000000000e+03,1.870000076293945312e+01,5.000000000000000000e-01,3.996094477543010726e-08,8.384812133499508491e-08,4.493751049041748047e+00,-1.661011949181556702e-02,-1.888239011168479919e-02
1.194000000000000000e+03,1.879999923706054688e+01,5.000000000000000000e-01,4.017516630483441986e-08,8.473911350392882014e-08,4.493755340576171875e+00,-1.663784310221672058e-02,-1.883018016815185547e-02
1.195000000000000000e+03,1.889999961853027344e+01,5.000000000000000000e-01,4.038939493966609007e-08,8.563487341461950564e-08,4.493768692016601562e+00,-1.667243055999279022e-02,-1.877254061400890350e-02
1.196000000000000000e+03,1.900000000000000000e+01,5.000000000000000000e-01,4.060362712721143907e-08,8.653539396163978381e-08,4.493795394897460938e+00,-1.671571657061576843e-02,-1.870888099074363708e-02
1.197000000000000000e+03,1.910000038146972656e+01,5.000000000000000000e-01,4.081785931475678808e-08,8.744066803956229705e-08,4.493841648101806641e+00,-1.676969788968563080e-02,-1.864149980247020721e-02
1.198000000000000000e+03,1.920000076293945312e+01,5.000000000000000000e-01,4.103209505501581589e-08,8.835069564838704537e-08,4.493916511535644531e+00,-1.683589816093444824e-02,-1.857492141425609589e-02
1.199000000000000000e+03,1.929999923706054688e+01,5.000000000000000000e-01,4.124633434798852250e-08,8.926544836640459835e-08,4.494029521942138672e+00,-1.691339164972305298e-02,-1.851810142397880554e-02
1.200000000000000000e+03,1.939999961853027344e+01,5.000000000000000000e-01,4.146058785181594430e-08,9.018496172075174400e-08,4.494192123413085938e+00,-1.699353568255901337e-02,-1.848993264138698578e-02
1.201000000000000000e+03,1.950000000000000000e+01,5.000000000000000000e-01,4.167485201378440252e-08,9.110920728971905191e-08,4.494411945343017578e+00,-1.704631559550762177e-02,-1.851985789835453033e-02
1.202000000000000000e+03,1.960000038146972656e+01,5.000000000000000000e-01,4.188912683389389713e-08,9.203818507330652210e-08,4.494683265686035156e+00,-1.699056290090084076e-02,-1.865228079259395599e-02
1.203000000000000000e+03,1.970000076293945312e+01,5.000000000000000000e-01,4.210341231214442814e-08,9.297188086065943935e-08,4.494976043701171875e+00,-1.663473434746265411e-02,-1.891902461647987366e-02
1.204000000000000000e+03,1.979999923706054688e+01,5.000000000000000000e-01,4.231769423768128036e-08,9.391028044092308846e-08,4.495236873626708984e+00,-1.573419757187366486e-02,-1.925124786794185638e-02
1.205000000000000000e+03,1.989999961853027344e+01,5.000000000000000000e-01,4.253196550507709617e-08,9.485344065751633025e-08,4.495396137237548828e+00,-1.423832308501005173e-02,-1.944282464683055878e-02
1.206000000000000000e+03,2.000000000000000000e+01,5.000000000000000000e-01,4.274621545619083918e-08,9.580138282672123751e-08,4.495433807373046875e+00,-1.263959426432847977e-02,-1.922187954187393188e-02
1.207000000000000000e+03,0.000000000000000000e+00,6.000000238418579102e-01,2.363718993725518822e-37,8.449962022453679200e-38,4.327023983001708984e+00,1.298107147216796875e+00,5.305699110031127930e-01
1.208000000000000000e+03,1.000000014901161194e-01,6.000000238418579102e-01,1.875043731391912161e-10,6.568960653208222311e-11,4.254452228546142578e+00,1.056201219558715820e+00,4.750915169715881348e-01
1.209000000000000000e+03,2.000000029802322388e-01,6.000000238418579102e-01,3.811275184339990574e-10,1.398425542031844770e-10,4.319714069366455078e+00,8.454269766807556152e-01,4.798314273357391357e-01
1.210000000000000000e+03,3.000000119209289551e-01,6.000000238418579102e-01,5.804646763252208075e-10,2.195457426967806214e-10,4.381214141845703125e+00,6.504460573196411133e-01,4.556057155132293701e-01
1.211000000000000000e+03,4.000000059604644775e-01,6.000000238418579102e-01,7.845156191343960472e-10,3.021067562780643811e-10,4.431522846221923828e+00,4.881748557090759277e-01,4.091542959213256836e-01
1.212000000000000000e+03,5.000000000000000000e-01,6.000000238418579102e-01,9.919854937479044565e-10,3.855513963646473030e-10,4.465698242187500000e+00,3.627734184265136719e-01,3.510268628597259521e-01
1.213000000000000000e+03,6.000000238418579102e-01,6.000000238418579102e-01,1.201613475387830476e-09,4.687517596302370748e-10,4.483055114746093750e+00,2.695553004741668701e-01,2.905638813972473145e-01
1.214000000000000000e+03,6.999999880790710449e-01,6.000000238418579102e-01,1.412385430832330258e-09,5.512804657215042425e-10,4.486545085906982422e+00,2.011127322912216187e-01,2.338394522666931152e-01
1.215000000000000000e+03,8.000000119209289551e-01,6.000000238418579102e-01,1.623586709520452587e-09,6.331711821516705641e-10,4.480423927307128906e+00,1.506598740816116333e-01,1.836875677108764648e-01
1.216000000000000000e+03,8.999999761581420898e-01,6.000000238418579102e-01,1.834764784547360250e-09,7.147115677064164174e-10,4.468677520751953125e+00,1.131166368722915649e-01,1.408710926771163940e-01
1.217000000000000000e+03,1.000000000000000000e+00,6.000000238418579102e-01,2.045660973948315586e-09,7.963048553882856595e-10,4.454270362854003906e+00,8.484571427106857300e-02,1.050578579306602478e-01
1.218000000000000000e+03,1.100000023841857910e+00,6.000000238418579102e-01,2.256145936740949764e-09,8.783898608477613834e-10,4.439171791076660156e+00,6.329479813575744629e-02,7.546518743038177490e-02
1.219000000000000000e+03,1.200000047683715820e+00,6.000000238418579102e-01,2.466173487647438378e-09,9.613990714640863189e-10,4.424580574035644531e+00,4.667076468467712402e-02,5.119324475526809692e-02
1.220000000000000000e+03,1.299999952316284180e+00,6.000000238418579102e-01,2.675747179381460228e-09,1.045738273752760961e-09,4.411162376403808594e+00,3.370492160320281982e-02,3.138123080134391785e-02
1.221000000000000000e+03,1.399999976158142090e+00,6.000000238418579102e-01,2.884899208410729443e-09,1.131778670782068730e-09,4.399237632751464844e+00,2.348982170224189758e-02,1.526761520653963089e-02
1.222000000000000000e+03,1.500000000000000000e+00,6.000000238418579102e-01,3.093675537968465505e-09,1.219854883771631648e-09,4.388912200927734375e+00,1.536866743117570877e-02,2.204887103289365768e-03
1.223000000000000000e+03,1.600000023841857910e+00,6.000000238418579102e-01,3.302128126492220872e-09,1.310266339871191121e-09,4.380165100097656250e+00,8.860155008733272552e-03,-8.346395567059516907e-03
1.224000000000000000e+03,1.700000047683715820e+00,6.000000238418579102e-01,3.510310264687177551e-09,1.403279714651262111e-09,4.372903823852539062e+00,3.607283812016248703e-03,-1.683081313967704773e-02
1.225000000000000000e+03,1.799999952316284180e+00,6.000000238418579102e-01,3.718271912589443673e-09,1.499132262772207014e-09,4.367001056671142578e+00,-6.578543689101934433e-04,-2.361295372247695923e-02
1.226000000000000000e+03,1.899999976158142090e+00,6.000000238418579102e-01,3.926060365699868271e-09,1.598035481720216922e-09,4.362315177917480469e+00,-4.138587974011898041e-03,-2.899148687720298767e-02
1.227000000000000000e+03,2.000000000000000000e+00,6.000000238418579102e-01,4.133717368404177250e-09,1.700177110208755948e-09,4.358701705932617188e+00,-6.990857888013124466e-03,-3.321108222007751465e-02
1.228000000000000000e+03,2.099999904632568359e+00,6.000000238418579102e-01,4.341280224195998017e-09,1.805724236803030180e-09,4.356022834777832031e+00,-9.335481561720371246e-03,-3.647269308567047119e-02
1.229000000000000000e+03,2.200000047683715820e+00,6.000000238418579102e-01,4.548782239766069324e-09,1.914826741611364014e-09,4.354150295257568359e+00,-1.126696821302175522e-02,-3.894190117716789246e-02
1.230000000000000000e+03,2.299999952316284180e+00,6.000000238418579102e-01,4.756249616377772327e-09,2.027616963218292767e-09,4.352966785430908203e+00,-1.285990141332149506e-02,-4.075527936220169067e-02
1.231000000000000000e+03,2.400000095367431641e+00,6.000000238418579102e-01,4.963708111205278328e-09,2.144214361621266107e-09,4.352367401123046875e+00,-1.417367067188024521e-02,-4.202632978558540344e-02
1.232000000000000000e+03,2.500000000000000000e+00,6.000000238418579102e-01,5.171176375995401031e-09,2.264725296186043124e-09,4.352257728576660156e+00,-1.525593455880880356e-02,-4.284916818141937256e-02
1.233000000000000000e+03,2.599999904632568359e+00,6.000000238418579102e-01,5.378671286138114738e-09,2.389244802003531731e-09,4.352555751800537109e+00,-1.614525727927684784e-02,-4.330258443951606750e-02
1.234000000000000000e+03,2.700000047683715820e+00,6.000000238418579102e-01,5.586207052488134650e-09,2.517858810335837916e-09,4.353188514709472656e+00,-1.687306910753250122e-02,-4.345245286822319031e-02
1.235000000000000000e+03,2.799999952316284180e+00,6.000000238418579102e-01,5.793794333186497170e-09,2.650643260437846038e-09,4.354093551635742188e+00,-1.746515929698944092e-02,-4.335393384099006653e-02
1.236000000000000000e+03,2.900000095367431641e+00,6.000000238418579102e-01,6.001442010017399298e-09,2.787666986137082858e-09,4.355215549468994141e+00,-1.794285327196121216e-02,-4.305372759699821472e-02
1.237000000000000000e+03,3.000000000000000000e+00,6.000000238418579102e-01,6.209156300229778935e-09,2.928991271744507685e-09,4.356507301330566406e+00,-1.832387782633304596e-02,-4.259090125560760498e-02
1.238000000000000000e+03,3.099999904632568359e+00,6.000000238418579102e-01,6.416942532894154283e-09,3.074670962277537001e-09,4.357927799224853516e+00,-1.862306892871856689e-02,-4.199871793389320374e-02
1.239000000000000000e+03,3.200000047683715820e+00,6.000000238418579102e-01,6.624804704813413991e-09,3.224756239816883863e-09,4.359442234039306641e+00,-1.885291561484336853e-02,-4.130518808960914612e-02
1.240000000000000000e+03,3.299999952316284180e+00,6.000000238418579102e-01,6.832744148255187611e-09,3.379290625105113577e-09,4.361021041870117188e+00,-1.902397535741329193e-02,-4.053388163447380066e-02
1.241000000000000000e+03,3.400000095367431641e+00,6.000000238418579102e-01,7.040762639576314541e-09,3.538314086171112649e-09,4.362638473510742188e+00,-1.914522796869277954e-02,-3.970499709248542786e-02
1.242000000000000000e+03,3.500000000000000000e+00,6.000000238418579102e-01,7.248859734687584933e-09,3.701861484017854309e-09,4.364274024963378906e+00,-1.922433450818061829e-02,-3.883529081940650940e-02
1.243000000000000000e+03,3.599999904632568359e+00,6.000000238418579102e-01,7.457034989499788935e-09,3.869964793068447761e-09,4.365909099578857422e+00,-1.926786452531814575e-02,-3.793916478753089905e-02
1.244000000000000000e+03,3.700000047683715820e+00,6.000000238418579102e-01,7.665287959923716699e-09,4.042652879121533260e-09,4.367528915405273438e+00,-1.928146556019783020e-02,-3.702862188220024109e-02
1.245000000000000000e+03,3.799999952316284180e+00,6.000000238418579102e-01,7.873617313691738673e-09,4.219949722994442709e-09,4.369122028350830078e+00,-1.927000656723976135e-02,-3.611359000205993652e-02
1.246000000000000000e+03,3.900000095367431641e+00,6.000000238418579102e-01,8.082019498090176057e-09,4.401878417326088311e-09,4.370677947998046875e+00,-1.923769712448120117e-02,-3.520263358950614929e-02
1.247000000000000000e+03,4.000000000000000000e+00,6.000000238418579102e-01,8.290492736762189452e-09,4.588458502041703468e-09,4.372189044952392578e+00,-1.918817870318889618e-02,-3.430251404643058777e-02
1.248000000000000000e+03,4.099999904632568359e+00,6.000000238418579102e-01,8.499035253350939456e-09,4.779707740709682184e-09,4.373648643493652344e+00,-1.912461034953594208e-02,-3.341907262802124023e-02
1.249000000000000000e+03,4.199999809265136719e+00,6.000000238418579102e-01,8.707642606964327570e-09,4.975641676452369211e-09,4.375053405761718750e+00,-1.904972828924655914e-02,-3.255689516663551331e-02
1.250000000000000000e+03,4.300000190734863281e+00,6.000000238418579102e-01,8.916314797602353792e-09,5.176274964213689600e-09,4.376398563385009766e+00,-1.896590553224086761e-02,-3.171977028250694275e-02
1.251000000000000000e+03,4.400000095367431641e+00,6.000000238418579102e-01,9.125044719837660523e-09,5.381617818045469903e-09,4.377682209014892578e+00,-1.887519843876361847e-02,-3.091034293174743652e-02
1.252000000000000000e+03,4.500000000000000000e+00,6.000000238418579102e-01,9.333832373670247762e-09,5.591681340177956372e-09,4.378903388977050781e+00,-1.877938769757747650e-02,-3.013109229505062103e-02
1.253000000000000000e+03,4.599999904632568359e+00,6.000000238418579102e-01,9.542673318208017008e-09,5.806475300573765708e-09,4.380061149597167969e+00,-1.868000626564025879e-02,-2.938355877995491028e-02
1.254000000000000000e+03,4.699999809265136719e+00,6.000000238418579102e-01,9.751564888915709162e-09,6.026007692838675212e-09,4.381155490875244141e+00,-1.857837475836277008e-02,-2.866885624825954437e-02
1.255000000000000000e+03,4.800000190734863281e+00,6.000000238418579102e-01,9.960505309436484822e-09,6.250286066489252335e-09,4.382186889648437500e+00,-1.847562752664089203e-02,-2.798774465918540955e-02
1.256000000000000000e+03,4.900000095367431641e+00,6.000000238418579102e-01,1.016948925069982579e-08,6.479314418328385727e-09,4.383156776428222656e+00,-1.837272755801677704e-02,-2.734027244150638580e-02
1.257000000000000000e+03,5.000000000000000000e+00,6.000000238418579102e-01,1.037851493634889266e-08,6.713099409694223141e-09,4.384066581726074219e+00,-1.827050000429153442e-02,-2.672669291496276855e-02
1.258000000000000000e+03,5.099999904632568359e+00,6.000000238418579102e-01,1.058757970184842634e-08,6.951644593300443375e-09,4.384917736053466797e+00,-1.816963031888008118e-02,-2.614664658904075623e-02
1.259000000000000000e+03,5.199999809265136719e+00,6.000000238418579102e-01,1.079668177084158742e-08,7.194953965949935082e-09,4.385712146759033203e+00,-1.807069219648838043e-02,-2.559963427484035492e-02
1.260000000000000000e+03,5.300000190734863281e+00,6.000000238418579102e-01,1.100581759061469711e-08,7.443031968534796761e-09,4.386451721191406250e+00,-1.797416433691978455e-02,-2.508505992591381073e-02
1.261000000000000000e+03,5.400000095367431641e+00,6.000000238418579102e-01,1.121498449663249630e-08,7.695878601055028412e-09,4.387139797210693359e+00,-1.788042485713958740e-02,-2.460182458162307739e-02
1.262000000000000000e+03,5.500000000000000000e+00,6.000000238418579102e-01,1.142417982435972590e-08,7.953496528045889136e-09,4.387777328491210938e+00,-1.778978295624256134e-02,-2.414924465119838715e-02
1.263000000000000000e+03,5.599999904632568359e+00,6.000000238418579102e-01,1.163340268561796620e-08,8.215887525864218333e-09,4.388367652893066406e+00,-1.770247519016265869e-02,-2.372618205845355988e-02
1.264000000000000000e+03,5.699999809265136719e+00,6.000000238418579102e-01,1.184264952769353840e-08,8.483053370866855403e-09,4.388913154602050781e+00,-1.761867851018905640e-02,-2.333151549100875854e-02
1.265000000000000000e+03,5.800000190734863281e+00,6.000000238418579102e-01,1.205192123876486221e-08,8.754995839410639746e-09,4.389415740966796875e+00,-1.753851398825645447e-02,-2.296415716409683228e-02
1.266000000000000000e+03,5.900000095367431641e+00,6.000000238418579102e-01,1.226121248976141942e-08,9.031713155138731963e-09,4.389878273010253906e+00,-1.746206171810626984e-02,-2.262262441217899323e-02
1.267000000000000000e+03,6.000000000000000000e+00,6.000000238418579102e-01,1.247052239250479033e-08,9.313207094407971454e-09,4.390302658081054688e+00,-1.738935708999633789e-02,-2.230595797300338745e-02
1.268000000000000000e+03,6.099999904632568359e+00,6.000000238418579102e-01,1.267985005881655525e-08,9.599477657218358218e-09,4.390691757202148438e+00,-1.732040569186210632e-02,-2.201282791793346405e-02
1.269000000000000000e+03,6.199999809265136719e+00,6.000000238418579102e-01,1.288919371233987476e-08,9.890525731748311955e-09,4.391047477722167969e+00,-1.725518144667148590e-02,-2.174199558794498444e-02
1.270000000000000000e+03,6.300000190734863281e+00,6.000000238418579102e-01,1.309855335307474888e-08,1.018635042981941297e-08,4.391372203826904297e+00,-1.719363406300544739e-02,-2.149231731891632080e-02
1.271000000000000000e+03,6.400000095367431641e+00,6.000000238418579102e-01,1.330792542830749881e-08,1.048695086325324155e-08,4.391667842864990234e+00,-1.713569276034832001e-02,-2.126232162117958069e-02
1.272000000000000000e+03,6.500000000000000000e+00,6.000000238418579102e-01,1.351730904985970483e-08,1.079232703204979771e-08,4.391936779022216797e+00,-1.708126999437808990e-02,-2.105109393596649170e-02
1.273000000000000000e+03,6.599999904632568359e+00,6.000000238418579102e-01,1.372670332955294725e-08,1.110247893620908144e-08,4.392180442810058594e+00,-1.703026518225669861e-02,-2.085739374160766602e-02
1.274000000000000000e+03,6.699999809265136719e+00,6.000000238418579102e-01,1.393610737920880638e-08,1.141740479937425334e-08,4.392401218414306641e+00,-1.698256283998489380e-02,-2.068010717630386353e-02
1.275000000000000000e+03,6.800000190734863281e+00,6.000000238418579102e-01,1.414552208700570191e-08,1.173710728608057252e-08,4.392600536346435547e+00,-1.693804189562797546e-02,-2.051824331283569336e-02
1.276000000000000000e+03,6.900000095367431641e+00,6.000000238418579102e-01,1.435494301205153533e-08,1.206158284361436017e-08,4.392779827117919922e+00,-1.689657568931579590e-02,-2.037049643695354462e-02
1.277000000000000000e+03,7.000000000000000000e+00,6.000000238418579102e-01,1.456437104252472636e-08,1.239083058379719660e-08,4.392940998077392578e+00,-1.685803011059761047e-02,-2.023614384233951569e-02
1.278000000000000000e+03,7.099999904632568359e+00,6.000000238418579102e-01,1.477380617842527499e-08,1.272485050662908179e-08,4.393085479736328125e+00,-1.682226918637752533e-02,-2.011415176093578339e-02
1.279000000000000000e+03,7.199999809265136719e+00,6.000000238418579102e-01,1.498324664339634182e-08,1.306364350028843546e-08,4.393214702606201172e+00,-1.678915508091449738e-02,-2.000361494719982147e-02
1.280000000000000000e+03,7.300000190734863281e+00,6.000000238418579102e-01,1.519269332561634656e-08,1.340720867659683790e-08,4.393329620361328125e+00,-1.675855368375778198e-02,-1.990376599133014679e-02
1.281000000000000000e+03,7.400000095367431641e+00,6.000000238418579102e-01,1.540214178419319069e-08,1.375554248284061032e-08,4.393432140350341797e+00,-1.673032529652118683e-02,-1.981352083384990692e-02
1.282000000000000000e+03,7.500000000000000000e+00,6.000000238418579102e-01,1.561159557184055302e-08,1.410864669537659211e-08,4.393522739410400391e+00,-1.670433580875396729e-02,-1.973238214850425720e-02
1.283000000000000000e+03,7.599999904632568359e+00,6.000000238418579102e-01,1.582105291220159415e-08,1.446651953784794387e-08,4.393602848052978516e+00,-1.668045669794082642e-02,-1.965954340994358063e-02
1.284000000000000000e+03,7.699999809265136719e+00,6.000000238418579102e-01,1.603051380527631409e-08,1.482916189843308530e-08,4.393672943115234375e+00,-1.665855385363101959e-02,-1.959432102739810944e-02
1.285000000000000000e+03,7.800000190734863281e+00,6.000000238418579102e-01,1.623997825106471282e-08,1.519657288895359670e-08,4.393734455108642578e+00,-1.663850620388984680e-02,-1.953616738319396973e-02
1.286000000000000000e+03,7.900000095367431641e+00,6.000000238418579102e-01,1.644944269685311156e-08,1.556874984487421898e-08,4.393788337707519531e+00,-1.662019081413745880e-02,-1.948421634733676910e-02
1.287000000000000000e+03,8.000000000000000000e+00,6.000000238418579102e-01,1.665891069535518909e-08,1.594569454255179153e-08,4.393834590911865234e+00,-1.660349220037460327e-02,-1.943817920982837677e-02
1.288000000000000000e+03,8.100000381469726562e+00,6.000000238418579102e-01,1.686838047021410603e-08,1.632740698198631435e-08,4.393874645233154297e+00,-1.658829860389232635e-02,-1.939754560589790344e-02
1.289000000000000000e+03,8.199999809265136719e+00,6.000000238418579102e-01,1.707785024507302296e-08,1.671388005775042984e-08,4.393908977508544922e+00,-1.657450385391712189e-02,-1.936146058142185211e-02
1.290000000000000000e+03,8.300000190734863281e+00,6.000000238418579102e-01,1.728732179628877930e-08,1.710512265162833501e-08,4.393938064575195312e+00,-1.656200550496578217e-02,-1.933011598885059357e-02
1.291000000000000000e+03,8.399999618530273438e+00,6.000000238418579102e-01,1.749679334750453563e-08,1.750112765819267224e-08,4.393962860107421875e+00,-1.655070669949054718e-02,-1.930236816406250000e-02
1.292000000000000000e+03,8.500000000000000000e+00,6.000000238418579102e-01,1.770626845143397077e-08,1.790190040651395975e-08,4.393983364105224609e+00,-1.654051430523395538e-02,-1.927856542170047760e-02
1.293000000000000000e+03,8.600000381469726562e+00,6.000000238418579102e-01,1.791574355536340590e-08,1.830743556752167933e-08,4.394000530242919922e+00,-1.653134450316429138e-02,-1.925780251622200012e-02
1.294000000000000000e+03,8.699999809265136719e+00,6.000000238418579102e-01,1.812521688293600164e-08,1.871773136485899158e-08,4.394013881683349609e+00,-1.652311347424983978e-02,-1.923975348472595215e-02
1.295000000000000000e+03,8.800000190734863281e+00,6.000000238418579102e-01,1.833469198686543677e-08,1.913279490395325411e-08,4.394024848937988281e+00,-1.651574485003948212e-02,-1.922466978430747986e-02
1.296000000000000000e+03,8.899999618530273438e+00,6.000000238418579102e-01,1.854416709079487191e-08,1.955261730302026990e-08,4.394033432006835938e+00,-1.650916598737239838e-02,-1.921154372394084930e-02
1.297000000000000000e+03,9.000000000000000000e+00,6.000000238418579102e-01,1.875364397108114645e-08,1.997720566748739657e-08,4.394039630889892578e+00,-1.650331169366836548e-02,-1.920085214078426361e-02
1.298000000000000000e+03,9.100000381469726562e+00,6.000000238418579102e-01,1.896312085136742098e-08,2.040655466828411591e-08,4.394043922424316406e+00,-1.649811677634716034e-02,-1.919182017445564270e-02
1.299000000000000000e+03,9.199999809265136719e+00,6.000000238418579102e-01,1.917259417894001672e-08,2.084066430541042791e-08,4.394046306610107422e+00,-1.649352163076400757e-02,-1.918423734605312347e-02
1.300000000000000000e+03,9.300000190734863281e+00,6.000000238418579102e-01,1.938207105922629125e-08,2.127953813158001140e-08,4.394047737121582031e+00,-1.648947410285472870e-02,-1.917846128344535828e-02
1.301000000000000000e+03,9.399999618530273438e+00,6.000000238418579102e-01,1.959154616315572639e-08,2.172316904136550875e-08,4.394047737121582031e+00,-1.648592203855514526e-02,-1.917358674108982086e-02
1.302000000000000000e+03,9.500000000000000000e+00,6.000000238418579102e-01,1.980102304344200093e-08,2.217156591655111697e-08,4.394047260284423828e+00,-1.648281700909137726e-02,-1.917018741369247437e-02
1.303000000000000000e+03,9.600000381469726562e+00,6.000000238418579102e-01,2.001049992372827546e-08,2.262472342806631787e-08,4.394045352935791016e+00,-1.648011803627014160e-02,-1.916757225990295410e-02
1.304000000000000000e+03,9.699999809265136719e+00,6.000000238418579102e-01,2.021997325130087120e-08,2.308263624684059323e-08,4.394042968750000000e+00,-1.647778414189815521e-02,-1.916561648249626160e-02
1.305000000000000000e+03,9.800000190734863281e+00,6.000000238418579102e-01,2.042945013158714573e-08,2.354531503101497947e-08,4.394040107727050781e+00,-1.647577807307243347e-02,-1.916474848985671997e-02
1.306000000000000000e+03,9.899999618530273438e+00,6.000000238418579102e-01,2.063892345915974147e-08,2.401275089880527958e-08,4.394036769866943359e+00,-1.647406630218029022e-02,-1.916413754224777222e-02
1.307000000000000000e+03,1.000000000000000000e+01,6.000000238418579102e-01,2.084840033944601601e-08,2.448495095563885116e-08,4.394032955169677734e+00,-1.647261530160903931e-02,-1.916442066431045532e-02
1.308000000000000000e+03,1.010000038146972656e+01,6.000000238418579102e-01,2.105787544337545114e-08,2.496190987244517601e-08,4.394028663635253906e+00,-1.647139899432659149e-02,-1.916497014462947845e-02
1.309000000000000000e+03,1.019999980926513672e+01,6.000000238418579102e-01,2.126734877094804688e-08,2.544362587286741473e-08,4.394024372100830078e+00,-1.647039130330085754e-02,-1.916569471359252930e-02
1.310000000000000000e+03,1.030000019073486328e+01,6.000000238418579102e-01,2.147682387487748201e-08,2.593010606233292492e-08,4.394020080566406250e+00,-1.646956801414489746e-02,-1.916711218655109406e-02
1.311000000000000000e+03,1.039999961853027344e+01,6.000000238418579102e-01,2.168629720245007775e-08,2.642133978270067018e-08,4.394015789031982422e+00,-1.646890677511692047e-02,-1.916839368641376495e-02
1.312000000000000000e+03,1.050000000000000000e+01,6.000000238418579102e-01,2.189577230637951288e-08,2.691733946846852632e-08,4.394011020660400391e+00,-1.646838895976543427e-02,-1.917025819420814514e-02
1.313000000000000000e+03,1.060000038146972656e+01,6.000000238418579102e-01,2.210524563395210862e-08,2.741809979056597513e-08,4.394006729125976562e+00,-1.646799594163894653e-02,-1.917208358645439148e-02
1.314000000000000000e+03,1.069999980926513672e+01,6.000000238418579102e-01,2.231471896152470435e-08,2.792361364356565900e-08,4.394002437591552734e+00,-1.646771095693111420e-02,-1.917383074760437012e-02
1.315000000000000000e+03,1.080000019073486328e+01,6.000000238418579102e-01,2.252419228909730009e-08,2.843389168560861435e-08,4.393998146057128906e+00,-1.646752282977104187e-02,-1.917604170739650726e-02
1.316000000000000000e+03,1.089999961853027344e+01,6.000000238418579102e-01,2.273366384031305643e-08,2.894892325855380477e-08,4.393993854522705078e+00,-1.646741479635238647e-02,-1.917792111635208130e-02
1.317000000000000000e+03,1.100000000000000000e+01,6.000000238418579102e-01,2.294313716788565216e-08,2.946872079689910606e-08,4.393989562988281250e+00,-1.646737568080425262e-02,-1.918020844459533691e-02
1.318000000000000000e+03,1.110000038146972656e+01,6.000000238418579102e-01,2.315261049545824790e-08,2.999327719521716062e-08,4.393985748291015625e+00,-1.646739616990089417e-02,-1.918230950832366943e-02
1.319000000000000000e+03,1.119999980926513672e+01,6.000000238418579102e-01,2.336208204667400423e-08,3.052258890079428966e-08,4.393981933593750000e+00,-1.646746695041656494e-02,-1.918420381844043732e-02
1.320000000000000000e+03,1.130000019073486328e+01,6.000000238418579102e-01,2.357155537424659997e-08,3.105666124270101136e-08,4.393978118896484375e+00,-1.646757870912551880e-02,-1.918645389378070831e-02
1.321000000000000000e+03,1.139999961853027344e+01,6.000000238418579102e-01,2.378102692546235630e-08,3.159549066822364694e-08,4.393974781036376953e+00,-1.646772585809230804e-02,-1.918827742338180542e-02
1.322000000000000000e+03,1.150000000000000000e+01,6.000000238418579102e-01,2.399049847667811264e-08,3.213908428278955398e-08,4.393971443176269531e+00,-1.646789908409118652e-02,-1.919043250381946564e-02
1.323000000000000000e+03,1.160000038146972656e+01,6.000000238418579102e-01,2.419997180425070837e-08,3.268743853368505370e-08,4.393968105316162109e+00,-1.646809466183185577e-02,-1.919233426451683044e-02
1.324000000000000000e+03,1.169999980926513672e+01,6.000000238418579102e-01,2.440944335546646471e-08,3.324054276276910969e-08,4.393965244293212891e+00,-1.646830700337886810e-02,-1.919397711753845215e-02
1.325000000000000000e+03,1.180000019073486328e+01,6.000000238418579102e-01,2.461891490668222104e-08,3.379841473361011595e-08,4.393962383270263672e+00,-1.646853238344192505e-02,-1.919593289494514465e-02
1.326000000000000000e+03,1.189999961853027344e+01,6.000000238418579102e-01,2.482838468154113798e-08,3.436104023535335728e-08,4.393959999084472656e+00,-1.646876707673072815e-02,-1.919742859899997711e-02
1.327000000000000000e+03,1.200000000000000000e+01,6.000000238418579102e-01,2.503785800911373371e-08,3.492842992613987008e-08,4.393957614898681641e+00,-1.646900549530982971e-02,-1.919922977685928345e-02
1.328000000000000000e+03,1.210000038146972656e+01,6.000000238418579102e-01,2.524732956032949005e-08,3.550057670054229675e-08,4.393955230712890625e+00,-1.646924763917922974e-02,-1.920076087117195129e-02
1.329000000000000000e+03,1.219999980926513672e+01,6.000000238418579102e-01,2.545679933518840699e-08,3.607748055856063729e-08,4.393952846527099609e+00,-1.646948792040348053e-02,-1.920202001929283142e-02
1.330000000000000000e+03,1.230000019073486328e+01,6.000000238418579102e-01,2.566627088640416332e-08,3.665914505290857051e-08,4.393950939178466797e+00,-1.646972633898258209e-02,-1.920358277857303619e-02
1.331000000000000000e+03,1.239999961853027344e+01,6.000000238418579102e-01,2.587574066126308026e-08,3.724556663087241759e-08,4.393949031829833984e+00,-1.646996289491653442e-02,-1.920468360185623169e-02
1.332000000000000000e+03,1.250000000000000000e+01,6.000000238418579102e-01,2.608521221247883659e-08,3.783674884516585735e-08,4.393947124481201172e+00,-1.647019386291503906e-02,-1.920609176158905029e-02
1.333000000000000000e+03,1.260000038146972656e+01,6.000000238418579102e-01,2.629468376369459293e-08,3.843269169578888977e-08,4.393945693969726562e+00,-1.647041738033294678e-02,-1.920723170042037964e-02
1.334000000000000000e+03,1.269999980926513672e+01,6.000000238418579102e-01,2.650415353855350986e-08,3.903339163002783607e-08,4.393944263458251953e+00,-1.647063344717025757e-02,-1.920810714364051819e-02
1.335000000000000000e+03,1.280000019073486328e+01,6.000000238418579102e-01,2.671362508976926620e-08,3.963885220059637504e-08,4.393942832946777344e+00,-1.647084206342697144e-02,-1.920929737389087677e-02
1.336000000000000000e+03,1.289999961853027344e+01,6.000000238418579102e-01,2.692309486462818313e-08,4.024906630206714908e-08,4.393941402435302734e+00,-1.647104322910308838e-02,-1.921003311872482300e-02
1.337000000000000000e+03,1.300000000000000000e+01,6.000000238418579102e-01,2.713256641584393947e-08,4.086404814529487339e-08,4.393940448760986328e+00,-1.647123321890830994e-02,-1.921109110116958618e-02
1.338000000000000000e+03,1.310000038146972656e+01,6.000000238418579102e-01,2.734203796705969580e-08,4.148378707213851158e-08,4.393939495086669922e+00,-1.647141575813293457e-02,-1.921189390122890472e-02
1.339000000000000000e+03,1.319999980926513672e+01,6.000000238418579102e-01,2.755150596556177334e-08,4.210827597717070603e-08,4.393938541412353516e+00,-1.647158898413181305e-02,-1.921244524419307709e-02
1.340000000000000000e+03,1.330000019073486328e+01,6.000000238418579102e-01,2.776097751677752967e-08,4.273753262395985075e-08,4.393937587738037109e+00,-1.647175289690494537e-02,-1.921332441270351410e-02
1.341000000000000000e+03,1.339999961853027344e+01,6.000000238418579102e-01,2.797044729163644661e-08,4.337154280165123055e-08,4.393936634063720703e+00,-1.647190749645233154e-02,-1.921376772224903107e-02
1.342000000000000000e+03,1.350000000000000000e+01,6.000000238418579102e-01,2.817991884285220294e-08,4.401032072109956061e-08,4.393936157226562500e+00,-1.647205464541912079e-02,-1.921454444527626038e-02
1.343000000000000000e+03,1.360000038146972656e+01,6.000000238418579102e-01,2.838938861771111988e-08,4.465385217145012575e-08,4.393935203552246094e+00,-1.647219248116016388e-02,-1.921508088707923889e-02
1.344000000000000000e+03,1.369999980926513672e+01,6.000000238418579102e-01,2.859885839257003681e-08,4.530214070541660476e-08,4.393934726715087891e+00,-1.647232286632061005e-02,-1.921538263559341431e-02
1.345000000000000000e+03,1.380000019073486328e+01,6.000000238418579102e-01,2.880832994378579315e-08,4.595519342842635524e-08,4.393934249877929688e+00,-1.647244393825531006e-02,-1.921602524816989899e-02
1.346000000000000000e+03,1.389999961853027344e+01,6.000000238418579102e-01,2.901779794228787068e-08,4.661299612962466199e-08,4.393933773040771484e+00,-1.647255942225456238e-02,-1.921624504029750824e-02
1.347000000000000000e+03,1.400000000000000000e+01,6.000000238418579102e-01,2.922726949350362702e-08,4.727556657257991901e-08,4.393933296203613281e+00,-1.647266931831836700e-02,-1.921681314706802368e-02
1.348000000000000000e+03,1.410000038146972656e+01,6.000000238418579102e-01,2.943674104471938335e-08,4.794289765186476870e-08,4.393932819366455078e+00,-1.647277176380157471e-02,-1.921715214848518372e-02
1.349000000000000000e+03,1.419999980926513672e+01,6.000000238418579102e-01,2.964620904322146089e-08,4.861497870933817467e-08,4.393932342529296875e+00,-1.647287048399448395e-02,-1.921726576983928680e-02
1.350000000000000000e+03,1.430000019073486328e+01,6.000000238418579102e-01,2.985568059443721722e-08,4.929182750856853090e-08,4.393932342529296875e+00,-1.647296547889709473e-02,-1.921773143112659454e-02
1.351000000000000000e+03,1.439999961853027344e+01,6.000000238418579102e-01,3.006514859293929476e-08,4.997342628598744341e-08,4.393931865692138672e+00,-1.647305861115455627e-02,-1.921778172254562378e-02
1.352000000000000000e+03,1.450000000000000000e+01,6.000000238418579102e-01,3.027462014415505109e-08,5.065979280516330618e-08,4.393931388854980469e+00,-1.647314988076686859e-02,-1.921818591654300690e-02
1.353000000000000000e+03,1.460000038146972656e+01,6.000000238418579102e-01,3.048409169537080743e-08,5.135091640795508283e-08,4.393931388854980469e+00,-1.647323928773403168e-02,-1.921836659312248230e-02
1.354000000000000000e+03,1.469999980926513672e+01,6.000000238418579102e-01,3.069355969387288496e-08,5.204679354164909455e-08,4.393930912017822266e+00,-1.647333241999149323e-02,-1.921832561492919922e-02
1.355000000000000000e+03,1.480000019073486328e+01,6.000000238418579102e-01,3.090303124508864130e-08,5.274743841710005654e-08,4.393930912017822266e+00,-1.647342741489410400e-02,-1.921863853931427002e-02
1.356000000000000000e+03,1.489999961853027344e+01,6.000000238418579102e-01,3.111249924359071883e-08,5.345283327073957480e-08,4.393930912017822266e+00,-1.647352799773216248e-02,-1.921853423118591309e-02
1.357000000000000000e+03,1.500000000000000000e+01,6.000000238418579102e-01,3.132197079480647517e-08,5.416299231342236453e-08,4.393930435180664062e+00,-1.647363789379596710e-02,-1.921877823770046234e-02
1.358000000000000000e+03,1.510000038146972656e+01,6.000000238418579102e-01,3.153144234602223150e-08,5.487791554514842574e-08,4.393930435180664062e+00,-1.647375710308551788e-02,-1.921879313886165619e-02
1.359000000000000000e+03,1.519999980926513672e+01,6.000000238418579102e-01,3.174091034452430904e-08,5.559758520234936441e-08,4.393929958343505859e+00,-1.647388935089111328e-02,-1.921857334673404694e-02
1.360000000000000000e+03,1.530000019073486328e+01,6.000000238418579102e-01,3.195038189574006537e-08,5.632202615402093215e-08,4.393929958343505859e+00,-1.647403836250305176e-02,-1.921868883073329926e-02
1.361000000000000000e+03,1.539999961853027344e+01,6.000000238418579102e-01,3.215984989424214291e-08,5.705121353116737737e-08,4.393929958343505859e+00,-1.647420972585678101e-02,-1.921836845576763153e-02
1.362000000000000000e+03,1.550000000000000000e+01,6.000000238418579102e-01,3.236932144545789924e-08,5.778517220278445166e-08,4.393929481506347656e+00,-1.647440716624259949e-02,-1.921837031841278076e-02
1.363000000000000000e+03,1.560000038146972656e+01,6.000000238418579102e-01,3.257879299667365558e-08,5.852388795801743981e-08,4.393929481506347656e+00,-1.647463627159595490e-02,-1.921810954809188843e-02
1.364000000000000000e+03,1.569999980926513672e+01,6.000000238418579102e-01,3.278826099517573311e-08,5.926735369143898424e-08,4.393929004669189453e+00,-1.647490076720714569e-02,-1.921757496893405914e-02
1.365000000000000000e+03,1.580000019073486328e+01,6.000000238418579102e-01,3.299773254639148945e-08,6.001558716661747894e-08,4.393928527832031250e+00,-1.647521182894706726e-02,-1.921732723712921143e-02
1.366000000000000000e+03,1.589999961853027344e+01,6.000000238418579102e-01,3.320720054489356698e-08,6.076857772541188751e-08,4.393928527832031250e+00,-1.647557504475116730e-02,-1.921658217906951904e-02
1.367000000000000000e+03,1.600000000000000000e+01,6.000000238418579102e-01,3.341667209610932332e-08,6.152632892053588876e-08,4.393928050994873047e+00,-1.647600159049034119e-02,-1.921609230339527130e-02
1.368000000000000000e+03,1.610000038146972656e+01,6.000000238418579102e-01,3.362614364732507966e-08,6.228884075198948267e-08,4.393927574157714844e+00,-1.647649891674518585e-02,-1.921525411307811737e-02
1.369000000000000000e+03,1.620000076293945312e+01,6.000000238418579102e-01,3.383561519854083599e-08,6.305611321977266925e-08,4.393927097320556641e+00,-1.647708192467689514e-02,-1.921423710882663727e-02
1.370000000000000000e+03,1.629999923706054688e+01,6.000000238418579102e-01,3.404507964432923472e-08,6.382812500760337571e-08,4.393926143646240234e+00,-1.647776365280151367e-02,-1.921262405812740326e-02
1.371000000000000000e+03,1.639999961853027344e+01,6.000000238418579102e-01,3.425455119554499106e-08,6.460491164261839003e-08,4.393925666809082031e+00,-1.647856272757053375e-02,-1.921153627336025238e-02
1.372000000000000000e+03,1.650000000000000000e+01,6.000000238418579102e-01,3.446402274676074740e-08,6.538645891396299703e-08,4.393924713134765625e+00,-1.647949405014514923e-02,-1.920977793633937836e-02
1.373000000000000000e+03,1.660000038146972656e+01,6.000000238418579102e-01,3.467349429797650373e-08,6.617276682163719670e-08,4.393923759460449219e+00,-1.648057997226715088e-02,-1.920768432319164276e-02
1.374000000000000000e+03,1.670000076293945312e+01,6.000000238418579102e-01,3.488296229647858127e-08,6.696383536564098904e-08,4.393922805786132812e+00,-1.648184284567832947e-02,-1.920520514249801636e-02
1.375000000000000000e+03,1.679999923706054688e+01,6.000000238418579102e-01,3.509243029498065880e-08,6.775964322969230125e-08,4.393921375274658203e+00,-1.648331247270107269e-02,-1.920189335942268372e-02
1.376000000000000000e+03,1.689999961853027344e+01,6.000000238418579102e-01,3.530190184619641514e-08,6.856023304635527893e-08,4.393919944763183594e+00,-1.648502051830291748e-02,-1.919883117079734802e-02
1.377000000000000000e+03,1.700000000000000000e+01,6.000000238418579102e-01,3.551136984469849267e-08,6.936557639392049168e-08,4.393918514251708984e+00,-1.648700237274169922e-02,-1.919478364288806915e-02
1.378000000000000000e+03,1.710000038146972656e+01,6.000000238418579102e-01,3.572084139591424901e-08,7.017568037781529711e-08,4.393916606903076172e+00,-1.648929901421070099e-02,-1.919004507362842560e-02
1.379000000000000000e+03,1.720000076293945312e+01,6.000000238418579102e-01,3.593031294713000534e-08,7.099054499803969520e-08,4.393914699554443359e+00,-1.649196073412895203e-02,-1.918450929224491119e-02
1.380000000000000000e+03,1.729999923706054688e+01,6.000000238418579102e-01,3.613977739291840408e-08,7.181014893831161316e-08,4.393912792205810547e+00,-1.649504341185092926e-02,-1.917767524719238281e-02
1.381000000000000000e+03,1.739999961853027344e+01,6.000000238418579102e-01,3.634924894413416041e-08,7.263453483119519660e-08,4.393910408020019531e+00,-1.649861223995685577e-02,-1.917056366801261902e-02
1.382000000000000000e+03,1.750000000000000000e+01,6.000000238418579102e-01,3.655872049534991675e-08,7.346367425498101511e-08,4.393908023834228516e+00,-1.650274358689785004e-02,-1.916186884045600891e-02
1.383000000000000000e+03,1.760000038146972656e+01,6.000000238418579102e-01,3.676818849385199428e-08,7.429757431509642629e-08,4.393905162811279297e+00,-1.650753058493137360e-02,-1.915180869400501251e-02
1.384000000000000000e+03,1.770000076293945312e+01,6.000000238418579102e-01,3.697766004506775062e-08,7.513623501154143014e-08,4.393902778625488281e+00,-1.651307940483093262e-02,-1.914019137620925903e-02
1.385000000000000000e+03,1.779999923706054688e+01,6.000000238418579102e-01,3.718712449085614935e-08,7.597963502803395386e-08,4.393899917602539062e+00,-1.651952229440212250e-02,-1.912642456591129303e-02
1.386000000000000000e+03,1.789999961853027344e+01,6.000000238418579102e-01,3.739659604207190569e-08,7.682781699713814305e-08,4.393897533416748047e+00,-1.652701757848262787e-02,-1.911142840981483459e-02
1.387000000000000000e+03,1.800000000000000000e+01,6.000000238418579102e-01,3.760606404057398322e-08,7.768075249714456731e-08,4.393895149230957031e+00,-1.653575152158737183e-02,-1.909379847347736359e-02
1.388000000000000000e+03,1.810000038146972656e+01,6.000000238418579102e-01,3.781553559178973956e-08,7.853845573890794185e-08,4.393893718719482422e+00,-1.654595881700515747e-02,-1.907364465296268463e-02
1.389000000000000000e+03,1.820000076293945312e+01,6.000000238418579102e-01,3.802500714300549589e-08,7.940091251157355146e-08,4.393892765045166016e+00,-1.655792444944381714e-02,-1.905068010091781616e-02
1.390000000000000000e+03,1.829999923706054688e+01,6.000000238418579102e-01,3.823447158879389463e-08,8.026810860428668093e-08,4.393893718719482422e+00,-1.657200045883655548e-02,-1.902423053979873657e-02
1.391000000000000000e+03,1.839999961853027344e+01,6.000000238418579102e-01,3.844394314000965096e-08,8.114008664961147588e-08,4.393896579742431641e+00,-1.658862456679344177e-02,-1.899517700076103210e-02
1.392000000000000000e+03,1.850000000000000000e+01,6.000000238418579102e-01,3.865341469122540730e-08,8.201681822583850590e-08,4.393902778625488281e+00,-1.660832203924655914e-02,-1.896214485168457031e-02
1.393000000000000000e+03,1.860000038146972656e+01,6.000000238418579102e-01,3.886288624244116363e-08,8.289831043839512859e-08,4.393913269042968750e+00,-1.663174107670783997e-02,-1.892540790140628815e-02
1.394000000000000000e+03,1.870000076293945312e+01,6.000000238418579102e-01,3.907236134637059877e-08,8.378455618185398635e-08,4.393930435180664062e+00,-1.665963977575302124e-02,-1.888506859540939331e-02
1.395000000000000000e+03,1.879999923706054688e+01,6.000000238418579102e-01,3.928183289758635510e-08,8.467554835078772157e-08,4.393956184387207031e+00,-1.669286005198955536e-02,-1.884123124182224274e-02
1.396000000000000000e+03,1.889999961853027344e+01,6.000000238418579102e-01,3.949131155422946904e-08,8.557130826147840708e-08,4.393993377685546875e+00,-1.673222891986370087e-02,-1.879619061946868896e-02
1.397000000000000000e+03,1.900000000000000000e+01,6.000000238418579102e-01,3.970079021087258297e-08,8.647182170307132765e-08,4.394046783447265625e+00,-1.677826792001724243e-02,-1.875105313956737518e-02
1.398000000000000000e+03,1.910000038146972656e+01,6.000000238418579102e-01,3.991027597294305451e-08,8.737709578099384089e-08,4.394120216369628906e+00,-1.683055423200130463e-02,-1.871028728783130646e-02
1.399000000000000000e+03,1.920000076293945312e+01,6.000000238418579102e-01,4.011976528772720485e-08,8.828711628439123160e-08,4.394220352172851562e+00,-1.688625290989875793e-02,-1.868084073066711426e-02
1.400000000000000000e+03,1.929999923706054688e+01,6.000000238418579102e-01,4.032926170793871279e-08,8.920186189698142698e-08,4.394351482391357422e+00,-1.693703792989253998e-02,-1.867349818348884583e-02
1.401000000000000000e+03,1.939999961853027344e+01,6.000000238418579102e-01,4.053876523357757833e-08,9.012137525132857263e-08,4.394515991210937500e+00,-1.696285605430603027e-02,-1.870586536824703217e-02
1.402000000000000000e+03,1.950000000000000000e+01,6.000000238418579102e-01,4.074827941735748027e-08,9.104562082029588055e-08,4.394710063934326172e+00,-1.692090369760990143e-02,-1.879724115133285522e-02
1.403000000000000000e+03,1.960000038146972656e+01,6.000000238418579102e-01,4.095780070656473981e-08,9.197460570931070833e-08,4.394918441772460938e+00,-1.673003099858760834e-02,-1.896298117935657501e-02
1.404000000000000000e+03,1.970000076293945312e+01,6.000000238418579102e-01,4.116732554848567815e-08,9.290831570751834079e-08,4.395112514495849609e+00,-1.627738960087299347e-02,-1.918672583997249603e-02
1.405000000000000000e+03,1.979999923706054688e+01,6.000000238418579102e-01,4.137684328497925890e-08,9.384675081491877791e-08,4.395254135131835938e+00,-1.547856070101261139e-02,-1.939310319721698761e-02
1.406000000000000000e+03,1.989999961853027344e+01,6.000000238418579102e-01,4.158635036333180324e-08,9.478996076950352290e-08,4.395318031311035156e+00,-1.440495811402797699e-02,-1.944903284311294556e-02
1.407000000000000000e+03,2.000000000000000000e+01,6.000000238418579102e-01,4.179584323082963238e-08,9.573795978212729096e-08,4.395311832427978516e+00,-1.335579063743352890e-02,-1.924051716923713684e-02
1.408000000000000000e+03,0.000000000000000000e+00,6.999999880790710449e-01,2.264664680502589029e-37,7.955273396500189358e-38,4.187701225280761719e+00,1.256310343742370605e+00,4.579218029975891113e-01
1.409000000000000000e+03,1.000000014901161194e-01,6.999999880790710449e-01,1.814670635980064617e-10,5.669508265637723810e-11,4.125431537628173828e+00,1.048744440078735352e+00,4.091588854789733887e-01
1.410000000000000000e+03,2.000000029802322388e-01,6.999999880790710449e-01,3.682923688241857008e-10,1.215072625848634402e-10,4.184416770935058594e+00,8.702838420867919922e-01,4.198145270347595215e-01
1.411000000000000000e+03,3.000000119209289551e-01,6.999999880790710449e-01,5.602299735230076294e-10,1.923077391774441480e-10,4.240757942199707031e+00,7.002289891242980957e-01,4.084157943725585938e-01
1.412000000000000000e+03,4.000000059604644775e-01,6.999999880790710449e-01,7.566318682705741594e-10,2.670448306929529281e-10,4.289615154266357422e+00,5.505838990211486816e-01,3.784308433532714844e-01
1.413000000000000000e+03,5.000000000000000000e-01,6.999999880790710449e-01,9.565919167897618536e-10,3.440603912885364934e-10,4.327217102050781250e+00,4.268537461757659912e-01,3.361778557300567627e-01
1.414000000000000000e+03,6.000000238418579102e-01,6.999999880790710449e-01,1.159141560513887725e-09,4.222318883417841562e-10,4.352159023284912109e+00,3.287296593189239502e-01,2.883417010307312012e-01
1.415000000000000000e+03,6.999999880790710449e-01,6.999999880790710449e-01,1.363405721654942226e-09,5.009492265450887771e-10,4.365343093872070312e+00,2.526464462280273438e-01,2.401888072490692139e-01
1.416000000000000000e+03,8.000000119209289551e-01,6.999999880790710449e-01,1.568684626640504121e-09,5.800011582124398046e-10,4.369105339050292969e+00,1.941609680652618408e-01,1.950563937425613403e-01
1.417000000000000000e+03,8.999999761581420898e-01,6.999999880790710449e-01,1.774465796522406436e-09,6.594426116279805683e-10,4.366167545318603516e+00,1.492016762495040894e-01,1.546120643615722656e-01
1.418000000000000000e+03,1.000000000000000000e+00,6.999999880790710449e-01,1.980400954337824260e-09,7.394854728559607793e-10,4.358981609344482422e+00,1.144869849085807800e-01,1.193999722599983215e-01
1.419000000000000000e+03,1.100000023841857910e+00,6.999999880790710449e-01,2.186267833437227637e-09,8.204216195295543912e-10,4.349455833435058594e+00,8.750306814908981323e-02,8.931583166122436523e-02
1.420000000000000000e+03,1.200000047683715820e+00,6.999999880790710449e-01,2.391936648749037886e-09,9.025745151269859434e-10,4.338951587677001953e+00,6.636870652437210083e-02,6.393600255250930786e-02
1.421000000000000000e+03,1.299999952316284180e+00,6.999999880790710449e-01,2.597339676668752873e-09,9.862703986840415382e-10,4.328374385833740234e+00,4.968681186437606812e-02,4.271371290087699890e-02
1.422000000000000000e+03,1.399999976158142090e+00,6.999999880790710449e-01,2.802452270245225918e-09,1.071823074738631476e-09,4.318291664123535156e+00,3.641979768872261047e-02,2.508532255887985229e-02
1.423000000000000000e+03,1.500000000000000000e+00,6.999999880790710449e-01,3.007275761746086573e-09,1.159525697680408030e-09,4.309030532836914062e+00,2.579392492771148682e-02,1.052264869213104248e-02
1.424000000000000000e+03,1.600000023841857910e+00,6.999999880790710449e-01,3.211827470650518990e-09,1.249647385570540337e-09,4.300754070281982422e+00,1.722837984561920166e-02,-1.445776550099253654e-03
1.425000000000000000e+03,1.700000047683715820e+00,6.999999880790710449e-01,3.416134042311114172e-09,1.342433386675168094e-09,4.293519973754882812e+00,1.028383430093526840e-02,-1.122925989329814911e-02
1.426000000000000000e+03,1.799999952316284180e+00,6.999999880790710449e-01,3.620225674794141923e-09,1.438105190487704022e-09,4.287318229675292969e+00,4.625244531780481339e-03,-1.917745731770992279e-02
1.427000000000000000e+03,1.899999976158142090e+00,6.999999880790710449e-01,3.824135230701131150e-09,1.536862415107975721e-09,4.282097816467285156e+00,-5.086569672130281106e-06,-2.558642812073230743e-02
1.428000000000000000e+03,2.000000000000000000e+00,6.999999880790710449e-01,4.027894018321376279e-09,1.638884583599065081e-09,4.277785778045654297e+00,-3.806999884545803070e-03,-3.070539608597755432e-02
1.429000000000000000e+03,2.099999904632568359e+00,6.999999880790710449e-01,4.231530681408912642e-09,1.744332567277240287e-09,4.274297714233398438e+00,-6.936766207218170166e-03,-3.474380820989608765e-02
1.430000000000000000e+03,2.200000047683715820e+00,6.999999880790710449e-01,4.435074085762380491e-09,1.853351361269517383e-09,4.271546363830566406e+00,-9.517581202089786530e-03,-3.787761181592941284e-02
1.431000000000000000e+03,2.299999952316284180e+00,6.999999880790710449e-01,4.638546879931482181e-09,1.966070195535962739e-09,4.269444942474365234e+00,-1.164729613810777664e-02,-4.025441780686378479e-02
1.432000000000000000e+03,2.400000095367431641e+00,6.999999880790710449e-01,4.841972600644339764e-09,2.082606087583371846e-09,4.267911911010742188e+00,-1.340425293892621994e-02,-4.199865832924842834e-02
1.433000000000000000e+03,2.500000000000000000e+00,6.999999880790710449e-01,5.045369011469347242e-09,2.203062843264547155e-09,4.266870498657226562e+00,-1.485160179436206818e-02,-4.321487620472908020e-02
1.434000000000000000e+03,2.599999904632568359e+00,6.999999880790710449e-01,5.248752543707269069e-09,2.327534609491976880e-09,4.266251087188720703e+00,-1.604062877595424652e-02,-4.399156197905540466e-02
1.435000000000000000e+03,2.700000047683715820e+00,6.999999880790710449e-01,5.452138296391240146e-09,2.456105985260137459e-09,4.265990257263183594e+00,-1.701326109468936920e-02,-4.440344497561454773e-02
1.436000000000000000e+03,2.799999952316284180e+00,6.999999880790710449e-01,5.655536927662296875e-09,2.588852243690098476e-09,4.266030788421630859e+00,-1.780398562550544739e-02,-4.451369866728782654e-02
1.437000000000000000e+03,2.900000095367431641e+00,6.999999880790710449e-01,5.858959095661475658e-09,2.725841552475571916e-09,4.266323089599609375e+00,-1.844136975705623627e-02,-4.437619820237159729e-02
1.438000000000000000e+03,3.000000000000000000e+00,6.999999880790710449e-01,6.062411461726924244e-09,2.867134307749097388e-09,4.266822338104248047e+00,-1.894919387996196747e-02,-4.403639957308769226e-02
1.439000000000000000e+03,3.099999904632568359e+00,6.999999880790710449e-01,6.265901575375210086e-09,3.012785576572696300e-09,4.267489433288574219e+00,-1.934738829731941223e-02,-4.353323206305503845e-02
1.440000000000000000e+03,3.200000047683715820e+00,6.999999880790710449e-01,6.469434321587641534e-09,3.162844874893266933e-09,4.268290042877197266e+00,-1.965273171663284302e-02,-4.289971292018890381e-02
1.441000000000000000e+03,3.299999952316284180e+00,6.999999880790710449e-01,6.673013253077897389e-09,3.317355501408769669e-09,4.269194602966308594e+00,-1.987941563129425049e-02,-4.216380789875984192e-02
1.442000000000000000e+03,3.400000095367431641e+00,6.999999880790710449e-01,6.876641478470446600e-09,3.476357202103486088e-09,4.270177364349365234e+00,-2.003951370716094971e-02,-4.134959727525711060e-02
1.443000000000000000e+03,3.500000000000000000e+00,6.999999880790710449e-01,7.080320330032918719e-09,3.639884837980389420e-09,4.271216392517089844e+00,-2.014332078397274017e-02,-4.047720879316329956e-02
1.444000000000000000e+03,3.599999904632568359e+00,6.999999880790710449e-01,7.284051140032943295e-09,3.807970383462588870e-09,4.272292613983154297e+00,-2.019966579973697662e-02,-3.956400975584983826e-02
1.445000000000000000e+03,3.700000047683715820e+00,6.999999880790710449e-01,7.487835240738149878e-09,3.980641594125700067e-09,4.273390293121337891e+00,-2.021613158285617828e-02,-3.862458467483520508e-02
1.446000000000000000e+03,3.799999952316284180e+00,6.999999880790710449e-01,7.691671299880908919e-09,4.157923338965474613e-09,4.274495601654052734e+00,-2.019924670457839966e-02,-3.767110034823417664e-02
1.447000000000000000e+03,3.900000095367431641e+00,6.999999880790710449e-01,7.895558873372010567e-09,4.339838710620824713e-09,4.275597095489501953e+00,-2.015465870499610901e-02,-3.671406954526901245e-02
1.448000000000000000e+03,4.000000000000000000e+00,6.999999880790710449e-01,8.099497073033035122e-09,4.526406804927773919e-09,4.276685237884521484e+00,-2.008724398910999298e-02,-3.576193377375602722e-02
1.449000000000000000e+03,4.099999904632568359e+00,6.999999880790710449e-01,8.303485010685562884e-09,4.717644497276296534e-09,4.277752876281738281e+00,-2.000122703611850739e-02,-3.482198342680931091e-02
1.450000000000000000e+03,4.199999809265136719e+00,6.999999880790710449e-01,8.507521798151174153e-09,4.913568663056366859e-09,4.278793334960937500e+00,-1.990026794373989105e-02,-3.390005230903625488e-02
1.451000000000000000e+03,4.300000190734863281e+00,6.999999880790710449e-01,8.711604770894609828e-09,5.114192624944280396e-09,4.279801845550537109e+00,-1.978753134608268738e-02,-3.300099074840545654e-02
1.452000000000000000e+03,4.400000095367431641e+00,6.999999880790710449e-01,8.915732152559030510e-09,5.319527485170283398e-09,4.280774593353271484e+00,-1.966576091945171356e-02,-3.212835267186164856e-02
1.453000000000000000e+03,4.500000000000000000e+00,6.999999880790710449e-01,9.119902166787596798e-09,5.529583901875412266e-09,4.281708240509033203e+00,-1.953732222318649292e-02,-3.128537908196449280e-02
1.454000000000000000e+03,4.599999904632568359e+00,6.999999880790710449e-01,9.324112149045049591e-09,5.744371200933073851e-09,4.282600879669189453e+00,-1.940426044166088104e-02,-3.047425299882888794e-02
1.455000000000000000e+03,4.699999809265136719e+00,6.999999880790710449e-01,9.528361211152969190e-09,5.963897820038255304e-09,4.283451557159423828e+00,-1.926832646131515503e-02,-2.969662845134735107e-02
1.456000000000000000e+03,4.800000190734863281e+00,6.999999880790710449e-01,9.732647576754516194e-09,6.188171308707524076e-09,4.284259319305419922e+00,-1.913102343678474426e-02,-2.895370498299598694e-02
1.457000000000000000e+03,4.900000095367431641e+00,6.999999880790710449e-01,9.936967693136011803e-09,6.417195663743768819e-09,4.285024166107177734e+00,-1.899362914264202118e-02,-2.824588865041732788e-02
1.458000000000000000e+03,5.000000000000000000e+00,6.999999880790710449e-01,1.014131978394061662e-08,6.650976658306717582e-09,4.285745620727539062e+00,-1.885722763836383820e-02,-2.757372334599494934e-02
1.459000000000000000e+03,5.099999904632568359e+00,6.999999880790710449e-01,1.034570296098991093e-08,6.889518289199259016e-09,4.286424636840820312e+00,-1.872272603213787079e-02,-2.693707495927810669e-02
1.460000000000000000e+03,5.199999809265136719e+00,6.999999880790710449e-01,1.055011367157021596e-08,7.132824997313491622e-09,4.287062168121337891e+00,-1.859088614583015442e-02,-2.633561752736568451e-02
1.461000000000000000e+03,5.300000190734863281e+00,6.999999880790710449e-01,1.075455280385995138e-08,7.380900335363094200e-09,4.287659168243408203e+00,-1.846232451498508453e-02,-2.576887980103492737e-02
1.462000000000000000e+03,5.400000095367431641e+00,6.999999880790710449e-01,1.095901502878859901e-08,7.633745191526486451e-09,4.288216590881347656e+00,-1.833754591643810272e-02,-2.523584850132465363e-02
1.463000000000000000e+03,5.500000000000000000e+00,6.999999880790710449e-01,1.116350123453457854e-08,7.891361342160507775e-09,4.288735866546630859e+00,-1.821695081889629364e-02,-2.473589219152927399e-02
1.464000000000000000e+03,5.599999904632568359e+00,6.999999880790710449e-01,1.136800786838421118e-08,8.153751451800417271e-09,4.289218902587890625e+00,-1.810084469616413116e-02,-2.426789514720439911e-02
1.465000000000000000e+03,5.699999809265136719e+00,6.999999880790710449e-01,1.157253493033749692e-08,8.420915520446214941e-09,4.289667129516601562e+00,-1.798945665359497070e-02,-2.383073233067989349e-02
1.466000000000000000e+03,5.800000190734863281e+00,6.999999880790710449e-01,1.177708064403759636e-08,8.692857988989999285e-09,4.290081977844238281e+00,-1.788294129073619843e-02,-2.342329546809196472e-02
1.467000000000000000e+03,5.900000095367431641e+00,6.999999880790710449e-01,1.198164234494925040e-08,8.969574416539671802e-09,4.290465831756591797e+00,-1.778139919042587280e-02,-2.304406464099884033e-02
1.468000000000000000e+03,6.000000000000000000e+00,6.999999880790710449e-01,1.218621914489403935e-08,9.251068355808911292e-09,4.290819168090820312e+00,-1.768487319350242615e-02,-2.269202284514904022e-02
1.469000000000000000e+03,6.099999904632568359e+00,6.999999880790710449e-01,1.239081104387196319e-08,9.537338030440878356e-09,4.291144371032714844e+00,-1.759336329996585846e-02,-2.236577682197093964e-02
1.470000000000000000e+03,6.199999809265136719e+00,6.999999880790710449e-01,1.259541537734776284e-08,9.828385216792412393e-09,4.291442871093750000e+00,-1.750683225691318512e-02,-2.206401526927947998e-02
1.471000000000000000e+03,6.300000190734863281e+00,6.999999880790710449e-01,1.280003214532143829e-08,1.012421080304193310e-08,4.291716575622558594e+00,-1.742520555853843689e-02,-2.178551629185676575e-02
1.472000000000000000e+03,6.400000095367431641e+00,6.999999880790710449e-01,1.300465957143615015e-08,1.042481123647576169e-08,4.291966915130615234e+00,-1.734838820993900299e-02,-2.152871526777744293e-02
1.473000000000000000e+03,6.500000000000000000e+00,6.999999880790710449e-01,1.320929587933505900e-08,1.073018740527231785e-08,4.292195320129394531e+00,-1.727625913918018341e-02,-2.129261381924152374e-02
1.474000000000000000e+03,6.599999904632568359e+00,6.999999880790710449e-01,1.341394195719658455e-08,1.104033930943160158e-08,4.292403697967529297e+00,-1.720867864787578583e-02,-2.107587829232215881e-02
1.475000000000000000e+03,6.699999809265136719e+00,6.999999880790710449e-01,1.361859602866388741e-08,1.135526606077519318e-08,4.292592525482177734e+00,-1.714549586176872253e-02,-2.087730355560779572e-02
1.476000000000000000e+03,6.800000190734863281e+00,6.999999880790710449e-01,1.382325809373696757e-08,1.167496854748151236e-08,4.292764186859130859e+00,-1.708654500544071198e-02,-2.069580182433128357e-02
1.477000000000000000e+03,6.900000095367431641e+00,6.999999880790710449e-01,1.402792548788056592e-08,1.199944410501530001e-08,4.292919158935546875e+00,-1.703165285289287567e-02,-2.052997983992099762e-02
1.478000000000000000e+03,7.000000000000000000e+00,6.999999880790710449e-01,1.423259998745152188e-08,1.232869273337655613e-08,4.293059349060058594e+00,-1.698064245283603668e-02,-2.037902176380157471e-02
1.479000000000000000e+03,7.099999904632568359e+00,6.999999880790710449e-01,1.443727892791457634e-08,1.266271354438686103e-08,4.293185234069824219e+00,-1.693332940340042114e-02,-2.024180442094802856e-02
1.480000000000000000e+03,7.199999809265136719e+00,6.999999880790710449e-01,1.464196230926972930e-08,1.300150653804621470e-08,4.293298721313476562e+00,-1.688953489065170288e-02,-2.011733688414096832e-02
1.481000000000000000e+03,7.300000190734863281e+00,6.999999880790710449e-01,1.484665190787382016e-08,1.334507171435461714e-08,4.293400287628173828e+00,-1.684907078742980957e-02,-2.000476419925689697e-02
1.482000000000000000e+03,7.400000095367431641e+00,6.999999880790710449e-01,1.505134328283475043e-08,1.369340640877680926e-08,4.293490886688232422e+00,-1.681175641715526581e-02,-1.990292407572269440e-02
1.483000000000000000e+03,7.500000000000000000e+00,6.999999880790710449e-01,1.525603821050935949e-08,1.404651062131279105e-08,4.293571949005126953e+00,-1.677741296589374542e-02,-1.981124095618724823e-02
1.484000000000000000e+03,7.599999904632568359e+00,6.999999880790710449e-01,1.546073669089764735e-08,1.440438435196256250e-08,4.293643474578857422e+00,-1.674586348235607147e-02,-1.972883194684982300e-02
1.485000000000000000e+03,7.699999809265136719e+00,6.999999880790710449e-01,1.566543872399961401e-08,1.476702671254770394e-08,4.293707370758056641e+00,-1.671693660318851471e-02,-1.965494453907012939e-02
1.486000000000000000e+03,7.800000190734863281e+00,6.999999880790710449e-01,1.587014253345842008e-08,1.513443947942505474e-08,4.293763160705566406e+00,-1.669046469032764435e-02,-1.958896219730377197e-02
1.487000000000000000e+03,7.900000095367431641e+00,6.999999880790710449e-01,1.607484811927406554e-08,1.550661643534567702e-08,4.293812274932861328e+00,-1.666628941893577576e-02,-1.952995546162128448e-02
1.488000000000000000e+03,8.000000000000000000e+00,6.999999880790710449e-01,1.627955370508971100e-08,1.588356113302324957e-08,4.293855667114257812e+00,-1.664425432682037354e-02,-1.947757415473461151e-02
1.489000000000000000e+03,8.100000381469726562e+00,6.999999880790710449e-01,1.648426284361903527e-08,1.626527357245777239e-08,4.293893337249755859e+00,-1.662421040236949921e-02,-1.943124830722808838e-02
1.490000000000000000e+03,8.199999809265136719e+00,6.999999880790710449e-01,1.668897198214835953e-08,1.665174842457872728e-08,4.293925762176513672e+00,-1.660601608455181122e-02,-1.939007267355918884e-02
1.491000000000000000e+03,8.300000190734863281e+00,6.999999880790710449e-01,1.689368467339136259e-08,1.704299101845663245e-08,4.293953895568847656e+00,-1.658953726291656494e-02,-1.935418695211410522e-02
1.492000000000000000e+03,8.399999618530273438e+00,6.999999880790710449e-01,1.709839558827752626e-08,1.743899602502096968e-08,4.293977737426757812e+00,-1.657464541494846344e-02,-1.932240277528762817e-02
1.493000000000000000e+03,8.500000000000000000e+00,6.999999880790710449e-01,1.730310827952052932e-08,1.783976877334225719e-08,4.293998241424560547e+00,-1.656121760606765747e-02,-1.929501816630363464e-02
1.494000000000000000e+03,8.600000381469726562e+00,6.999999880790710449e-01,1.750782274712037179e-08,1.824530571070681617e-08,4.294015407562255859e+00,-1.654913835227489471e-02,-1.927109248936176300e-02
1.495000000000000000e+03,8.699999809265136719e+00,6.999999880790710449e-01,1.771253543836337485e-08,1.865560150804412842e-08,4.294029712677001953e+00,-1.653830148279666901e-02,-1.925026252865791321e-02
1.496000000000000000e+03,8.800000190734863281e+00,6.999999880790710449e-01,1.791724990596321732e-08,1.907066504713839095e-08,4.294041156768798828e+00,-1.652860268950462341e-02,-1.923273876309394836e-02
1.497000000000000000e+03,8.899999618530273438e+00,6.999999880790710449e-01,1.812196437356305978e-08,1.949048566984856734e-08,4.294050693511962891e+00,-1.651994884014129639e-02,-1.921748183667659760e-02
1.498000000000000000e+03,9.000000000000000000e+00,6.999999880790710449e-01,1.832667884116290224e-08,1.991507403431569401e-08,4.294058322906494141e+00,-1.651225052773952484e-02,-1.920494437217712402e-02
1.499000000000000000e+03,9.100000381469726562e+00,6.999999880790710449e-01,1.853139508511958411e-08,2.034442481146925275e-08,4.294064044952392578e+00,-1.650542020797729492e-02,-1.919431611895561218e-02
1.500000000000000000e+03,9.199999809265136719e+00,6.999999880790710449e-01,1.873610955271942657e-08,2.077853444859556475e-08,4.294068336486816406e+00,-1.649938523769378662e-02,-1.918536424636840820e-02
1.501000000000000000e+03,9.300000190734863281e+00,6.999999880790710449e-01,1.894082579667610844e-08,2.121740827476514824e-08,4.294071197509765625e+00,-1.649406924843788147e-02,-1.917842030525207520e-02
1.502000000000000000e+03,9.399999618530273438e+00,6.999999880790710449e-01,1.914553848791911150e-08,2.166103918455064559e-08,4.294073104858398438e+00,-1.648940704762935638e-02,-1.917256042361259460e-02
1.503000000000000000e+03,9.500000000000000000e+00,6.999999880790710449e-01,1.935025473187579337e-08,2.210943605973625381e-08,4.294073581695556641e+00,-1.648533716797828674e-02,-1.916833594441413879e-02
1.504000000000000000e+03,9.600000381469726562e+00,6.999999880790710449e-01,1.955497097583247523e-08,2.256259357125145470e-08,4.294073581695556641e+00,-1.648180000483989716e-02,-1.916504278779029846e-02
1.505000000000000000e+03,9.699999809265136719e+00,6.999999880790710449e-01,1.975968544343231770e-08,2.302050816638256947e-08,4.294073104858398438e+00,-1.647874340415000916e-02,-1.916253194212913513e-02
1.506000000000000000e+03,9.800000190734863281e+00,6.999999880790710449e-01,1.996439991103216016e-08,2.348318695055695571e-08,4.294071674346923828e+00,-1.647611707448959351e-02,-1.916122250258922577e-02
1.507000000000000000e+03,9.899999618530273438e+00,6.999999880790710449e-01,2.016911437863200263e-08,2.395062281834725582e-08,4.294069766998291016e+00,-1.647388003766536713e-02,-1.916026696562767029e-02
1.508000000000000000e+03,1.000000000000000000e+01,6.999999880790710449e-01,2.037383062258868449e-08,2.442282287518082740e-08,4.294067859649658203e+00,-1.647198759019374847e-02,-1.916029304265975952e-02
1.509000000000000000e+03,1.010000038146972656e+01,6.999999880790710449e-01,2.057854509018852696e-08,2.489978179198715225e-08,4.294064998626708984e+00,-1.647040247917175293e-02,-1.916065812110900879e-02
1.510000000000000000e+03,1.019999980926513672e+01,6.999999880790710449e-01,2.078325778143153002e-08,2.538149779240939097e-08,4.294062614440917969e+00,-1.646909117698669434e-02,-1.916126534342765808e-02
1.511000000000000000e+03,1.030000019073486328e+01,6.999999880790710449e-01,2.098797402538821189e-08,2.586797798187490116e-08,4.294059753417968750e+00,-1.646802015602588654e-02,-1.916261948645114899e-02
1.512000000000000000e+03,1.039999961853027344e+01,6.999999880790710449e-01,2.119268671663121495e-08,2.635921347859948582e-08,4.294056415557861328e+00,-1.646716520190238953e-02,-1.916388608515262604e-02
1.513000000000000000e+03,1.050000000000000000e+01,6.999999880790710449e-01,2.139740118423105741e-08,2.685521138801050256e-08,4.294053554534912109e+00,-1.646649651229381561e-02,-1.916577294468879700e-02
1.514000000000000000e+03,1.060000038146972656e+01,6.999999880790710449e-01,2.160211565183089988e-08,2.735597171010795137e-08,4.294050216674804688e+00,-1.646599359810352325e-02,-1.916765794157981873e-02
1.515000000000000000e+03,1.069999980926513672e+01,6.999999880790710449e-01,2.180682834307390294e-08,2.786148556310763524e-08,4.294046878814697266e+00,-1.646563224494457245e-02,-1.916949078440666199e-02
1.516000000000000000e+03,1.080000019073486328e+01,6.999999880790710449e-01,2.201154281067374541e-08,2.837176360515059059e-08,4.294044017791748047e+00,-1.646539382636547089e-02,-1.917181164026260376e-02
1.517000000000000000e+03,1.089999961853027344e+01,6.999999880790710449e-01,2.221625550191674847e-08,2.888679695445262041e-08,4.294040679931640625e+00,-1.646526344120502472e-02,-1.917381957173347473e-02
1.518000000000000000e+03,1.100000000000000000e+01,6.999999880790710449e-01,2.242096819315975154e-08,2.940659271644108230e-08,4.294037818908691406e+00,-1.646522432565689087e-02,-1.917625032365322113e-02
1.519000000000000000e+03,1.110000038146972656e+01,6.999999880790710449e-01,2.262568266075959400e-08,2.993115089111597626e-08,4.294034481048583984e+00,-1.646526157855987549e-02,-1.917850412428379059e-02
1.520000000000000000e+03,1.119999980926513672e+01,6.999999880790710449e-01,2.283039357564575766e-08,3.046045904397942650e-08,4.294031620025634766e+00,-1.646536402404308319e-02,-1.918056048452854156e-02
1.521000000000000000e+03,1.130000019073486328e+01,6.999999880790710449e-01,2.303510804324560013e-08,3.099453493859982700e-08,4.294028759002685547e+00,-1.646552048623561859e-02,-1.918297819793224335e-02
1.522000000000000000e+03,1.139999961853027344e+01,6.999999880790710449e-01,2.323981895813176379e-08,3.153336436412246258e-08,4.294026374816894531e+00,-1.646572165191173553e-02,-1.918497122824192047e-02
1.523000000000000000e+03,1.150000000000000000e+01,6.999999880790710449e-01,2.344453342573160626e-08,3.207695797868836962e-08,4.294023513793945312e+00,-1.646595820784568787e-02,-1.918729953467845917e-02
1.524000000000000000e+03,1.160000038146972656e+01,6.999999880790710449e-01,2.364924611697460932e-08,3.262531222958386934e-08,4.294021129608154297e+00,-1.646622456610202789e-02,-1.918937265872955322e-02
1.525000000000000000e+03,1.169999980926513672e+01,6.999999880790710449e-01,2.385395703186077299e-08,3.317841645866792533e-08,4.294018745422363281e+00,-1.646651141345500946e-02,-1.919118501245975494e-02
1.526000000000000000e+03,1.180000019073486328e+01,6.999999880790710449e-01,2.405866972310377605e-08,3.373628842950893159e-08,4.294016361236572266e+00,-1.646681316196918488e-02,-1.919330842792987823e-02
1.527000000000000000e+03,1.189999961853027344e+01,6.999999880790710449e-01,2.426338063798993971e-08,3.429891393125217292e-08,4.294014453887939453e+00,-1.646712608635425568e-02,-1.919496618211269379e-02
1.528000000000000000e+03,1.200000000000000000e+01,6.999999880790710449e-01,2.446809332923294278e-08,3.486630006932500692e-08,4.294012546539306641e+00,-1.646744646131992340e-02,-1.919692754745483398e-02
1.529000000000000000e+03,1.210000038146972656e+01,6.999999880790710449e-01,2.467280602047594584e-08,3.543845039644111239e-08,4.294010639190673828e+00,-1.646776869893074036e-02,-1.919861137866973877e-02
1.530000000000000000e+03,1.219999980926513672e+01,6.999999880790710449e-01,2.487751693536210951e-08,3.601535070174577413e-08,4.294008731842041016e+00,-1.646809093654155731e-02,-1.920001767575740814e-02
1.531000000000000000e+03,1.230000019073486328e+01,6.999999880790710449e-01,2.508222962660511257e-08,3.659701874880738615e-08,4.294007301330566406e+00,-1.646841131150722504e-02,-1.920172199606895447e-02
1.532000000000000000e+03,1.239999961853027344e+01,6.999999880790710449e-01,2.528694054149127624e-08,3.718343677405755443e-08,4.294005870819091797e+00,-1.646872423589229584e-02,-1.920295692980289459e-02
1.533000000000000000e+03,1.250000000000000000e+01,6.999999880790710449e-01,2.549165323273427930e-08,3.777462254106467299e-08,4.294004440307617188e+00,-1.646903157234191895e-02,-1.920449361205101013e-02
1.534000000000000000e+03,1.260000038146972656e+01,6.999999880790710449e-01,2.569636592397728236e-08,3.837056539168770541e-08,4.294003009796142578e+00,-1.646932959556579590e-02,-1.920575648546218872e-02
1.535000000000000000e+03,1.269999980926513672e+01,6.999999880790710449e-01,2.590107506250660663e-08,3.897126177321297291e-08,4.294001579284667969e+00,-1.646961644291877747e-02,-1.920674741268157959e-02
1.536000000000000000e+03,1.280000019073486328e+01,6.999999880790710449e-01,2.610578775374960969e-08,3.957672589649519068e-08,4.294000625610351562e+00,-1.646989397704601288e-02,-1.920804567635059357e-02
1.537000000000000000e+03,1.289999961853027344e+01,6.999999880790710449e-01,2.631049866863577336e-08,4.018693999796596472e-08,4.293999671936035156e+00,-1.647016033530235291e-02,-1.920888572931289673e-02
1.538000000000000000e+03,1.300000000000000000e+01,6.999999880790710449e-01,2.651520958352193702e-08,4.080191828848001023e-08,4.293998718261718750e+00,-1.647041551768779755e-02,-1.921003870666027069e-02
1.539000000000000000e+03,1.310000038146972656e+01,6.999999880790710449e-01,2.671992227476494008e-08,4.142165721532364842e-08,4.293997764587402344e+00,-1.647065579891204834e-02,-1.921093091368675232e-02
1.540000000000000000e+03,1.319999980926513672e+01,6.999999880790710449e-01,2.692463318965110375e-08,4.204614967306952167e-08,4.293996810913085938e+00,-1.647088676691055298e-02,-1.921156793832778931e-02
1.541000000000000000e+03,1.330000019073486328e+01,6.999999880790710449e-01,2.712934410453726741e-08,4.267540631985866639e-08,4.293996334075927734e+00,-1.647110469639301300e-02,-1.921252533793449402e-02
1.542000000000000000e+03,1.339999961853027344e+01,6.999999880790710449e-01,2.733405501942343108e-08,4.330941649755004619e-08,4.293995380401611328e+00,-1.647130958735942841e-02,-1.921304129064083099e-02
1.543000000000000000e+03,1.350000000000000000e+01,6.999999880790710449e-01,2.753876771066643414e-08,4.394819086428469745e-08,4.293994903564453125e+00,-1.647150330245494843e-02,-1.921388506889343262e-02
1.544000000000000000e+03,1.360000038146972656e+01,6.999999880790710449e-01,2.774347862555259780e-08,4.459172586734894139e-08,4.293994426727294922e+00,-1.647168584167957306e-02,-1.921448484063148499e-02
1.545000000000000000e+03,1.369999980926513672e+01,6.999999880790710449e-01,2.794818954043876147e-08,4.524001440131542040e-08,4.293993949890136719e+00,-1.647185906767845154e-02,-1.921484246850013733e-02
1.546000000000000000e+03,1.380000019073486328e+01,6.999999880790710449e-01,2.815290045532492513e-08,4.589306712432517088e-08,4.293993473052978516e+00,-1.647202111780643463e-02,-1.921553909778594971e-02
1.547000000000000000e+03,1.389999961853027344e+01,6.999999880790710449e-01,2.835761137021108880e-08,4.655086982552347763e-08,4.293992996215820312e+00,-1.647217385470867157e-02,-1.921580545604228973e-02
1.548000000000000000e+03,1.400000000000000000e+01,6.999999880790710449e-01,2.856232228509725246e-08,4.721344026847873465e-08,4.293992519378662109e+00,-1.647231914103031158e-02,-1.921641640365123749e-02
1.549000000000000000e+03,1.410000038146972656e+01,6.999999880790710449e-01,2.876703497634025553e-08,4.788077134776358434e-08,4.293992042541503906e+00,-1.647245511412620544e-02,-1.921679452061653137e-02
1.550000000000000000e+03,1.419999980926513672e+01,6.999999880790710449e-01,2.897174411486957979e-08,4.855285240523699031e-08,4.293991565704345703e+00,-1.647258736193180084e-02,-1.921694166958332062e-02
1.551000000000000000e+03,1.430000019073486328e+01,6.999999880790710449e-01,2.917645680611258285e-08,4.922970120446734654e-08,4.293991565704345703e+00,-1.647271402180194855e-02,-1.921743899583816528e-02
1.552000000000000000e+03,1.439999961853027344e+01,6.999999880790710449e-01,2.938116594464190712e-08,4.991129998188625905e-08,4.293991088867187500e+00,-1.647283695638179779e-02,-1.921751536428928375e-02
1.553000000000000000e+03,1.450000000000000000e+01,6.999999880790710449e-01,2.958587863588491018e-08,5.059766650106212182e-08,4.293991088867187500e+00,-1.647295802831649780e-02,-1.921794377267360687e-02
1.554000000000000000e+03,1.460000038146972656e+01,6.999999880790710449e-01,2.979058955077107385e-08,5.128879010385389847e-08,4.293990612030029297e+00,-1.647307910025119781e-02,-1.921814307570457458e-02
1.555000000000000000e+03,1.469999980926513672e+01,6.999999880790710449e-01,2.999529868930039811e-08,5.198466723754791019e-08,4.293990612030029297e+00,-1.647320203483104706e-02,-1.921811886131763458e-02
1.556000000000000000e+03,1.480000019073486328e+01,6.999999880790710449e-01,3.020001315690024057e-08,5.268530856028519338e-08,4.293990135192871094e+00,-1.647333055734634399e-02,-1.921844109892845154e-02
1.557000000000000000e+03,1.489999961853027344e+01,6.999999880790710449e-01,3.040472051907272544e-08,5.339070696663839044e-08,4.293990135192871094e+00,-1.647346839308738708e-02,-1.921834424138069153e-02
1.558000000000000000e+03,1.500000000000000000e+01,6.999999880790710449e-01,3.060943498667256790e-08,5.410086600932118017e-08,4.293990135192871094e+00,-1.647361367940902710e-02,-1.921859197318553925e-02
1.559000000000000000e+03,1.510000038146972656e+01,6.999999880790710449e-01,3.081414590155873157e-08,5.481578568833356258e-08,4.293989658355712891e+00,-1.647377572953701019e-02,-1.921860314905643463e-02
1.560000000000000000e+03,1.519999980926513672e+01,6.999999880790710449e-01,3.101885681644489523e-08,5.553545889824818005e-08,4.293989658355712891e+00,-1.647395640611648560e-02,-1.921837776899337769e-02
1.561000000000000000e+03,1.530000019073486328e+01,6.999999880790710449e-01,3.122356773133105889e-08,5.625989629720606899e-08,4.293989181518554688e+00,-1.647415943443775177e-02,-1.921848393976688385e-02
1.562000000000000000e+03,1.539999961853027344e+01,6.999999880790710449e-01,3.142827864621722256e-08,5.698908722706619301e-08,4.293989181518554688e+00,-1.647439226508140564e-02,-1.921814680099487305e-02
1.563000000000000000e+03,1.550000000000000000e+01,6.999999880790710449e-01,3.163298956110338622e-08,5.772304589868326730e-08,4.293989181518554688e+00,-1.647466048598289490e-02,-1.921812631189823151e-02
1.564000000000000000e+03,1.560000038146972656e+01,6.999999880790710449e-01,3.183770047598954989e-08,5.846176165391625545e-08,4.293988704681396484e+00,-1.647496968507766724e-02,-1.921783760190010071e-02
1.565000000000000000e+03,1.569999980926513672e+01,6.999999880790710449e-01,3.204241139087571355e-08,5.920522738733779988e-08,4.293988704681396484e+00,-1.647533290088176727e-02,-1.921726576983928680e-02
1.566000000000000000e+03,1.580000019073486328e+01,6.999999880790710449e-01,3.224712230576187721e-08,5.995346441522997338e-08,4.293988227844238281e+00,-1.647575385868549347e-02,-1.921697519719600677e-02
1.567000000000000000e+03,1.589999961853027344e+01,6.999999880790710449e-01,3.245183322064804088e-08,6.070644786859702435e-08,4.293988227844238281e+00,-1.647624932229518890e-02,-1.921617984771728516e-02
1.568000000000000000e+03,1.600000000000000000e+01,6.999999880790710449e-01,3.265654413553420454e-08,6.146419906372102560e-08,4.293987751007080078e+00,-1.647682674229145050e-02,-1.921562850475311279e-02
1.569000000000000000e+03,1.610000038146972656e+01,6.999999880790710449e-01,3.286125505042036821e-08,6.222671089517461951e-08,4.293987751007080078e+00,-1.647750474512577057e-02,-1.921472139656543732e-02
1.570000000000000000e+03,1.620000076293945312e+01,6.999999880790710449e-01,3.306596596530653187e-08,6.299398336295780609e-08,4.293987274169921875e+00,-1.647829636931419373e-02,-1.921362243592739105e-02
1.571000000000000000e+03,1.629999923706054688e+01,6.999999880790710449e-01,3.327067688019269553e-08,6.376599515078851255e-08,4.293986797332763672e+00,-1.647922210395336151e-02,-1.921191811561584473e-02
1.572000000000000000e+03,1.639999961853027344e+01,6.999999880790710449e-01,3.347538779507885920e-08,6.454278889123088447e-08,4.293986320495605469e+00,-1.648030430078506470e-02,-1.921072416007518768e-02
1.573000000000000000e+03,1.650000000000000000e+01,6.999999880790710449e-01,3.368009870996502286e-08,6.532433616257549147e-08,4.293985843658447266e+00,-1.648156531155109406e-02,-1.920884661376476288e-02
1.574000000000000000e+03,1.660000038146972656e+01,6.999999880790710449e-01,3.388480962485118653e-08,6.611064407024969114e-08,4.293985366821289062e+00,-1.648303493857383728e-02,-1.920662261545658112e-02
1.575000000000000000e+03,1.670000076293945312e+01,6.999999880790710449e-01,3.408952053973735019e-08,6.690170550882612588e-08,4.293984889984130859e+00,-1.648474298417568207e-02,-1.920399628579616547e-02
1.576000000000000000e+03,1.679999923706054688e+01,6.999999880790710449e-01,3.429423145462351386e-08,6.769752047830479569e-08,4.293984413146972656e+00,-1.648672670125961304e-02,-1.920052431523799896e-02
1.577000000000000000e+03,1.689999961853027344e+01,6.999999880790710449e-01,3.449894236950967752e-08,6.849810318954041577e-08,4.293983936309814453e+00,-1.648902706801891327e-02,-1.919728890061378479e-02
1.578000000000000000e+03,1.700000000000000000e+01,6.999999880790710449e-01,3.470365328439584118e-08,6.930344653710562852e-08,4.293983459472656250e+00,-1.649169065058231354e-02,-1.919305697083473206e-02
1.579000000000000000e+03,1.710000038146972656e+01,6.999999880790710449e-01,3.490836419928200485e-08,7.011355052100043395e-08,4.293982982635498047e+00,-1.649477146565914154e-02,-1.918812654912471771e-02
1.580000000000000000e+03,1.720000076293945312e+01,6.999999880790710449e-01,3.511307866688184731e-08,7.092841514122483204e-08,4.293982505798339844e+00,-1.649833284318447113e-02,-1.918239519000053406e-02
1.581000000000000000e+03,1.729999923706054688e+01,6.999999880790710449e-01,3.531778602905433218e-08,7.174801908149675000e-08,4.293982505798339844e+00,-1.650244370102882385e-02,-1.917536929249763489e-02
1.582000000000000000e+03,1.739999961853027344e+01,6.999999880790710449e-01,3.552249694394049584e-08,7.257240497438033344e-08,4.293982028961181641e+00,-1.650718785822391510e-02,-1.916808076202869415e-02
1.583000000000000000e+03,1.750000000000000000e+01,6.999999880790710449e-01,3.572720785882665950e-08,7.340154439816615195e-08,4.293982028961181641e+00,-1.651265658438205719e-02,-1.915923878550529480e-02
1.584000000000000000e+03,1.760000038146972656e+01,6.999999880790710449e-01,3.593192232642650197e-08,7.423544445828156313e-08,4.293982505798339844e+00,-1.651896350085735321e-02,-1.914907991886138916e-02
1.585000000000000000e+03,1.770000076293945312e+01,6.999999880790710449e-01,3.613663324131266563e-08,7.507410515472656698e-08,4.293982982635498047e+00,-1.652623340487480164e-02,-1.913744769990444183e-02
1.586000000000000000e+03,1.779999923706054688e+01,6.999999880790710449e-01,3.634134060348515050e-08,7.591750517121909070e-08,4.293984413146972656e+00,-1.653461717069149017e-02,-1.912378519773483276e-02
1.587000000000000000e+03,1.789999961853027344e+01,6.999999880790710449e-01,3.654605507108499296e-08,7.676568714032327989e-08,4.293986797332763672e+00,-1.654428988695144653e-02,-1.910907030105590820e-02
1.588000000000000000e+03,1.800000000000000000e+01,6.999999880790710449e-01,3.675076953868483542e-08,7.761862264032970415e-08,4.293990135192871094e+00,-1.655545644462108612e-02,-1.909197308123111725e-02
1.589000000000000000e+03,1.810000038146972656e+01,6.999999880790710449e-01,3.695548045357099909e-08,7.847631877666572109e-08,4.293994903564453125e+00,-1.656835898756980896e-02,-1.907270587980747223e-02
1.590000000000000000e+03,1.820000076293945312e+01,6.999999880790710449e-01,3.716019492117084155e-08,7.933877554933133069e-08,4.294001579284667969e+00,-1.658328250050544739e-02,-1.905112341046333313e-02
1.591000000000000000e+03,1.829999923706054688e+01,6.999999880790710449e-01,3.736490583605700522e-08,8.020597164204446017e-08,4.294011116027832031e+00,-1.660055108368396759e-02,-1.902673766016960144e-02
1.592000000000000000e+03,1.839999961853027344e+01,6.999999880790710449e-01,3.756962030365684768e-08,8.107794968736925512e-08,4.294024467468261719e+00,-1.662054471671581268e-02,-1.900067925453186035e-02
1.593000000000000000e+03,1.850000000000000000e+01,6.999999880790710449e-01,3.777433832397036895e-08,8.195468126359628513e-08,4.294042110443115234e+00,-1.664367131888866425e-02,-1.897191256284713745e-02
1.594000000000000000e+03,1.860000038146972656e+01,6.999999880790710449e-01,3.797905634428389021e-08,8.283617347615290782e-08,4.294065475463867188e+00,-1.667035743594169617e-02,-1.894115470349788666e-02
1.595000000000000000e+03,1.870000076293945312e+01,6.999999880790710449e-01,3.818377791731109028e-08,8.372241921961176558e-08,4.294096946716308594e+00,-1.670098304748535156e-02,-1.890908740460872650e-02
1.596000000000000000e+03,1.879999923706054688e+01,6.999999880790710449e-01,3.838849593762461154e-08,8.461340428311814321e-08,4.294138431549072266e+00,-1.673575118184089661e-02,-1.887654513120651245e-02
1.597000000000000000e+03,1.889999961853027344e+01,6.999999880790710449e-01,3.859322106336549041e-08,8.550916419380882871e-08,4.294191837310791016e+00,-1.677442714571952820e-02,-1.884670741856098175e-02
1.598000000000000000e+03,1.900000000000000000e+01,6.999999880790710449e-01,3.879794974182004808e-08,8.640967763540174928e-08,4.294260501861572266e+00,-1.681583933532238007e-02,-1.882163994014263153e-02
1.599000000000000000e+03,1.910000038146972656e+01,6.999999880790710449e-01,3.900268552570196334e-08,8.731494460789690493e-08,4.294347763061523438e+00,-1.685692369937896729e-02,-1.880661398172378540e-02
1.600000000000000000e+03,1.920000076293945312e+01,6.999999880790710449e-01,3.920742486229755741e-08,8.822495800586693804e-08,4.294455051422119141e+00,-1.689100824296474457e-02,-1.880867779254913330e-02
1.601000000000000000e+03,1.929999923706054688e+01,6.999999880790710449e-01,3.941216775160683028e-08,8.913970361845713342e-08,4.294583797454833984e+00,-1.690485700964927673e-02,-1.883681118488311768e-02
1.602000000000000000e+03,1.939999961853027344e+01,6.999999880790710449e-01,3.961692129905713955e-08,9.005921697280427907e-08,4.294731140136718750e+00,-1.687420904636383057e-02,-1.890280470252037048e-02
1.603000000000000000e+03,1.950000000000000000e+01,6.999999880790710449e-01,3.982167839922112762e-08,9.098346964719894459e-08,4.294887542724609375e+00,-1.675861701369285583e-02,-1.901340670883655548e-02
1.604000000000000000e+03,1.960000038146972656e+01,6.999999880790710449e-01,4.002644260481247329e-08,9.191246164164112997e-08,4.295038223266601562e+00,-1.650190353393554688e-02,-1.916489377617835999e-02
1.605000000000000000e+03,1.970000076293945312e+01,6.999999880790710449e-01,4.023120325769014016e-08,9.284619295613083523e-08,4.295161247253417969e+00,-1.604868471622467041e-02,-1.932866126298904419e-02
1.606000000000000000e+03,1.979999923706054688e+01,6.999999880790710449e-01,4.043595325242677063e-08,9.378465648524070275e-08,4.295236587524414062e+00,-1.538661960512399673e-02,-1.944373920559883118e-02
1.607000000000000000e+03,1.989999961853027344e+01,6.999999880790710449e-01,4.064069969444972230e-08,9.472790907238959335e-08,4.295257091522216797e+00,-1.459538098424673080e-02,-1.943433098495006561e-02
1.608000000000000000e+03,2.000000000000000000e+01,6.999999880790710449e-01,4.084543192561795877e-08,9.567593650672279182e-08,4.295241355895996094e+00,-1.385339442640542984e-02,-1.924579963088035583e-02
1.609000000000000000e+03,0.000000000000000000e+00,8.000000119209289551e-01,2.174432045580031116e-37,7.504565924147998225e-38,4.060733795166015625e+00,1.218220114707946777e+00,3.942115604877471924e-01
1.610000000000000000e+03,1.000000014901161194e-01,8.000000119209289551e-01,1.759651313548715734e-10,4.880714582489176223e-11,4.006124973297119141e+00,1.036190867424011230e+00,3.497729301452636719e-01
1.611000000000000000e+03,2.000000029802322388e-01,8.000000119209289551e-01,3.566922868181165995e-10,1.054880419126824620e-10,4.059724330902099609e+00,8.815137147903442383e-01,3.641141057014465332e-01
1.612000000000000000e+03,3.000000119209289551e-01,8.000000119209289551e-01,5.420203730288619681e-10,1.684179046224087983e-10,4.111410617828369141e+00,7.317368984222412109e-01,3.612020313739776611e-01
1.613000000000000000e+03,4.000000059604644775e-01,8.000000119209289551e-01,7.315079653125167169e-10,2.359943074292658594e-10,4.157825946807861328e+00,5.952869653701782227e-01,3.428857326507568359e-01
1.614000000000000000e+03,5.000000000000000000e-01,8.000000119209289551e-01,9.245073595565145297e-10,3.068400811212512735e-10,4.196152210235595703e+00,4.772194325923919678e-01,3.130711317062377930e-01
1.615000000000000000e+03,6.000000238418579102e-01,8.000000119209289551e-01,1.120278869670698896e-09,3.799212611177438248e-10,4.224884986877441406e+00,3.789428472518920898e-01,2.763807475566864014e-01
1.616000000000000000e+03,6.999999880790710449e-01,8.000000119209289551e-01,1.318100184555248688e-09,4.545693266244654751e-10,4.244015693664550781e+00,2.992265224456787109e-01,2.369975745677947998e-01
1.617000000000000000e+03,8.000000119209289551e-01,8.000000119209289551e-01,1.517339476286849731e-09,5.304350292334447659e-10,4.254680156707763672e+00,2.355149686336517334e-01,1.980507820844650269e-01
1.618000000000000000e+03,8.999999761581420898e-01,8.000000119209289551e-01,1.717487818631013852e-09,6.074119540677713758e-10,4.258597373962402344e+00,1.849364638328552246e-01,1.615301966667175293e-01
1.619000000000000000e+03,1.000000000000000000e+00,8.000000119209289551e-01,1.918160741354313359e-09,6.855599976596238321e-10,4.257581710815429688e+00,1.448398679494857788e-01,1.284861862659454346e-01
1.620000000000000000e+03,1.100000023841857910e+00,8.000000119209289551e-01,2.119082243012826439e-09,7.650416411486560264e-10,4.253249168395996094e+00,1.129952743649482727e-01,9.931387752294540405e-02
1.621000000000000000e+03,1.200000047683715820e+00,8.000000119209289551e-01,2.320063696714669277e-09,8.460765976714412773e-10,4.246895313262939453e+00,8.761161565780639648e-02,7.400203496217727661e-02
1.622000000000000000e+03,1.299999952316284180e+00,8.000000119209289551e-01,2.520982977927133106e-09,9.289102820275729755e-10,4.239491462707519531e+00,6.728449463844299316e-02,5.231507122516632080e-02
1.623000000000000000e+03,1.399999976158142090e+00,8.000000119209289551e-01,2.721766367841382817e-09,1.013794825865943494e-09,4.231726646423339844e+00,5.092501640319824219e-02,3.391128405928611755e-02
1.624000000000000000e+03,1.500000000000000000e+00,8.000000119209289551e-01,2.922373898428531902e-09,1.100976754209170849e-09,4.224066734313964844e+00,3.769256547093391418e-02,1.841459423303604126e-02
1.625000000000000000e+03,1.600000023841857910e+00,8.000000119209289551e-01,3.122789582477025760e-09,1.190689991048543561e-09,4.216809749603271484e+00,2.693799138069152832e-02,5.454259458929300308e-03
1.626000000000000000e+03,1.700000047683715820e+00,8.000000119209289551e-01,3.323012753853049617e-09,1.283153361342215248e-09,4.210132122039794922e+00,1.815864257514476776e-02,-5.314650479704141617e-03
1.627000000000000000e+03,1.799999952316284180e+00,8.000000119209289551e-01,3.523052294340800472e-09,1.378568259546852914e-09,4.204125404357910156e+00,1.096360851079225540e-02,-1.420248858630657196e-02
1.628000000000000000e+03,1.899999976158142090e+00,8.000000119209289551e-01,3.722924191151832929e-09,1.477119648818359110e-09,4.198822498321533203e+00,5.047220736742019653e-03,-2.148296311497688293e-02
1.629000000000000000e+03,2.000000000000000000e+00,8.000000119209289551e-01,3.922646651943750840e-09,1.578975283855754697e-09,4.194218635559082031e+00,1.690986682660877705e-04,-2.739418298006057739e-02
1.630000000000000000e+03,2.099999904632568359e+00,8.000000119209289551e-01,4.122238994597182682e-09,1.684287487258018245e-09,4.190284252166748047e+00,-3.860989818349480629e-03,-3.214178234338760376e-02
1.631000000000000000e+03,2.200000047683715820e+00,8.000000119209289551e-01,4.321721647215781559e-09,1.793194814858622976e-09,4.186975002288818359e+00,-7.194558158516883850e-03,-3.590252250432968140e-02
1.632000000000000000e+03,2.299999952316284180e+00,8.000000119209289551e-01,4.521113261546361173e-09,1.905821500614024444e-09,4.184238910675048828e+00,-9.953016415238380432e-03,-3.882762789726257324e-02
1.633000000000000000e+03,2.400000095367431641e+00,8.000000119209289551e-01,4.720432045246525377e-09,2.022280343183524565e-09,4.182020187377929688e+00,-1.223431155085563660e-02,-4.104674980044364929e-02
1.634000000000000000e+03,2.500000000000000000e+00,8.000000119209289551e-01,4.919693541438618922e-09,2.142672483884666690e-09,4.180263996124267578e+00,-1.411791983991861343e-02,-4.267043992877006531e-02
1.635000000000000000e+03,2.599999904632568359e+00,8.000000119209289551e-01,5.118913293244986562e-09,2.267089627139284858e-09,4.178915977478027344e+00,-1.566875539720058441e-02,-4.379349201917648315e-02
1.636000000000000000e+03,2.700000047683715820e+00,8.000000119209289551e-01,5.318104623341923798e-09,2.395614817629621029e-09,4.177925586700439453e+00,-1.694014482200145721e-02,-4.449689015746116638e-02
1.637000000000000000e+03,2.799999952316284180e+00,8.000000119209289551e-01,5.517277301692047331e-09,2.528321108030695541e-09,4.177245140075683594e+00,-1.797614246606826782e-02,-4.484980553388595581e-02
1.638000000000000000e+03,2.900000095367431641e+00,8.000000119209289551e-01,5.716443318704023113e-09,2.665276443991615452e-09,4.176831722259521484e+00,-1.881337165832519531e-02,-4.491176083683967590e-02
1.639000000000000000e+03,3.000000000000000000e+00,8.000000119209289551e-01,5.915609335715998895e-09,2.806540111421895745e-09,4.176645278930664062e+00,-1.948241516947746277e-02,-4.473343119025230408e-02
1.640000000000000000e+03,3.099999904632568359e+00,8.000000119209289551e-01,6.114782902244542129e-09,2.952166289205138128e-09,4.176651477813720703e+00,-2.000897005200386047e-02,-4.435851797461509705e-02
1.641000000000000000e+03,3.200000047683715820e+00,8.000000119209289551e-01,6.313971123717010414e-09,3.102203827154426108e-09,4.176817893981933594e+00,-2.041471377015113831e-02,-4.382435977458953857e-02
1.642000000000000000e+03,3.299999952316284180e+00,8.000000119209289551e-01,6.513177108757872702e-09,3.256695801923115141e-09,4.177116870880126953e+00,-2.071802318096160889e-02,-4.316282272338867188e-02
1.643000000000000000e+03,3.400000095367431641e+00,8.000000119209289551e-01,6.712406186437647193e-09,3.415681515406276958e-09,4.177524089813232422e+00,-2.093454822897911072e-02,-4.240147396922111511e-02
1.644000000000000000e+03,3.500000000000000000e+00,8.000000119209289551e-01,6.911660577202383138e-09,3.579195162473070013e-09,4.178017139434814453e+00,-2.107765525579452515e-02,-4.156355187296867371e-02
1.645000000000000000e+03,3.599999904632568359e+00,8.000000119209289551e-01,7.110942501498129786e-09,3.747268717546603511e-09,4.178577423095703125e+00,-2.115881070494651794e-02,-4.066918417811393738e-02
1.646000000000000000e+03,3.700000047683715820e+00,8.000000119209289551e-01,7.310254179770936389e-09,3.919930158247098007e-09,4.179188728332519531e+00,-2.118786983191967010e-02,-3.973539546132087708e-02
1.647000000000000000e+03,3.799999952316284180e+00,8.000000119209289551e-01,7.509596500199222646e-09,4.097203465391885402e-09,4.179837226867675781e+00,-2.117333188652992249e-02,-3.877650573849678040e-02
1.648000000000000000e+03,3.900000095367431641e+00,8.000000119209289551e-01,7.708970350961408258e-09,4.279111287530668051e-09,4.180510044097900391e+00,-2.112253941595554352e-02,-3.780491277575492859e-02
1.649000000000000000e+03,4.000000000000000000e+00,8.000000119209289551e-01,7.908375287968283374e-09,4.465673164588679356e-09,4.181196689605712891e+00,-2.104183845221996307e-02,-3.683072701096534729e-02
1.650000000000000000e+03,4.099999904632568359e+00,8.000000119209289551e-01,8.107812199398267694e-09,4.656906416045103470e-09,4.181889533996582031e+00,-2.093672938644886017e-02,-3.586268052458763123e-02
1.651000000000000000e+03,4.199999809265136719e+00,8.000000119209289551e-01,8.307279308894521819e-09,4.852826140933075294e-09,4.182580471038818359e+00,-2.081197127699851990e-02,-3.490785881876945496e-02
1.652000000000000000e+03,4.300000190734863281e+00,8.000000119209289551e-01,8.506778392813885148e-09,5.053447438285729731e-09,4.183263778686523438e+00,-2.067168615758419037e-02,-3.397220745682716370e-02
1.653000000000000000e+03,4.400000095367431641e+00,8.000000119209289551e-01,8.706306786621098581e-09,5.258779633976473633e-09,4.183933734893798828e+00,-2.051944099366664886e-02,-3.306021913886070251e-02
1.654000000000000000e+03,4.500000000000000000e+00,8.000000119209289551e-01,8.905863602137742419e-09,5.468834718413972951e-09,4.184587478637695312e+00,-2.035831846296787262e-02,-3.217594698071479797e-02
1.655000000000000000e+03,4.599999904632568359e+00,8.000000119209289551e-01,9.105447951185396960e-09,5.683621129293214835e-09,4.185220718383789062e+00,-2.019097283482551575e-02,-3.132226690649986267e-02
1.656000000000000000e+03,4.699999809265136719e+00,8.000000119209289551e-01,9.305058945585642505e-09,5.903146860219976588e-09,4.185831069946289062e+00,-2.001968584954738617e-02,-3.050141222774982452e-02
1.657000000000000000e+03,4.800000190734863281e+00,8.000000119209289551e-01,9.504696585338479053e-09,6.127420348889245361e-09,4.186417579650878906e+00,-1.984640955924987793e-02,-2.971508540213108063e-02
1.658000000000000000e+03,4.900000095367431641e+00,8.000000119209289551e-01,9.704357317730227805e-09,6.356444703925490103e-09,4.186977863311767578e+00,-1.967280916869640350e-02,-2.896410785615444183e-02
1.659000000000000000e+03,5.000000000000000000e+00,8.000000119209289551e-01,9.904041142760888761e-09,6.590226142577648716e-09,4.187511444091796875e+00,-1.950029470026493073e-02,-2.824936807155609131e-02
1.660000000000000000e+03,5.099999904632568359e+00,8.000000119209289551e-01,1.010374628407362252e-08,6.828769105737819700e-09,4.188018321990966797e+00,-1.933004707098007202e-02,-2.757101319730281830e-02
1.661000000000000000e+03,5.199999809265136719e+00,8.000000119209289551e-01,1.030347185349000938e-08,7.072076702030472006e-09,4.188497066497802734e+00,-1.916305348277091980e-02,-2.692894637584686279e-02
1.662000000000000000e+03,5.300000190734863281e+00,8.000000119209289551e-01,1.050321785101004934e-08,7.320153372347704135e-09,4.188949108123779297e+00,-1.900012418627738953e-02,-2.632287703454494476e-02
1.663000000000000000e+03,5.400000095367431641e+00,8.000000119209289551e-01,1.070298072392006361e-08,7.572999116689516086e-09,4.189374446868896484e+00,-1.884191483259201050e-02,-2.575193718075752258e-02
1.664000000000000000e+03,5.500000000000000000e+00,8.000000119209289551e-01,1.090276047222005218e-08,7.830617043680376810e-09,4.189773082733154297e+00,-1.868894882500171661e-02,-2.521559409797191620e-02
1.665000000000000000e+03,5.599999904632568359e+00,8.000000119209289551e-01,1.110255620773159535e-08,8.093008929677125707e-09,4.190145969390869141e+00,-1.854162663221359253e-02,-2.471281029284000397e-02
1.666000000000000000e+03,5.699999809265136719e+00,8.000000119209289551e-01,1.130236615409785372e-08,8.360175662858182477e-09,4.190494060516357422e+00,-1.840025000274181366e-02,-2.424251101911067963e-02
1.667000000000000000e+03,5.800000190734863281e+00,8.000000119209289551e-01,1.150219031131882730e-08,8.632119019580386521e-09,4.190818309783935547e+00,-1.826502569019794464e-02,-2.380360849201679230e-02
1.668000000000000000e+03,5.900000095367431641e+00,8.000000119209289551e-01,1.170202690303767668e-08,8.908838111665318138e-09,4.191119194030761719e+00,-1.813608407974243164e-02,-2.339459396898746490e-02
1.669000000000000000e+03,6.000000000000000000e+00,8.000000119209289551e-01,1.190187415289756245e-08,9.190332939112977328e-09,4.191398143768310547e+00,-1.801349036395549774e-02,-2.301444299519062042e-02
1.670000000000000000e+03,6.099999904632568359e+00,8.000000119209289551e-01,1.210173206089848463e-08,9.476605278280203493e-09,4.191656589508056641e+00,-1.789724640548229218e-02,-2.266173809766769409e-02
1.671000000000000000e+03,6.199999809265136719e+00,8.000000119209289551e-01,1.230160062704044321e-08,9.767654240988576930e-09,4.191894531250000000e+00,-1.778731122612953186e-02,-2.233513444662094116e-02
1.672000000000000000e+03,6.300000190734863281e+00,8.000000119209289551e-01,1.250147807496659880e-08,1.006348160359493704e-08,4.192114353179931641e+00,-1.768359541893005371e-02,-2.203336916863918304e-02
1.673000000000000000e+03,6.400000095367431641e+00,8.000000119209289551e-01,1.270136351649853168e-08,1.036408292520718533e-08,4.192316055297851562e+00,-1.758597791194915771e-02,-2.175483293831348419e-02
1.674000000000000000e+03,6.500000000000000000e+00,8.000000119209289551e-01,1.290125606345782217e-08,1.066946087036058088e-08,4.192501068115234375e+00,-1.749430969357490540e-02,-2.149846777319908142e-02
1.675000000000000000e+03,6.599999904632568359e+00,8.000000119209289551e-01,1.310115571584447025e-08,1.097961455087670402e-08,4.192670345306396484e+00,-1.740841381251811981e-02,-2.126288600265979767e-02
1.676000000000000000e+03,6.699999809265136719e+00,8.000000119209289551e-01,1.330106069730163654e-08,1.129454307857713502e-08,4.192824840545654297e+00,-1.732810027897357941e-02,-2.104681916534900665e-02
1.677000000000000000e+03,6.800000190734863281e+00,8.000000119209289551e-01,1.350097367236458012e-08,1.161424734164029360e-08,4.192965507507324219e+00,-1.725316047668457031e-02,-2.084911614656448364e-02
1.678000000000000000e+03,6.900000095367431641e+00,8.000000119209289551e-01,1.370089020014120251e-08,1.193872467553092065e-08,4.193093776702880859e+00,-1.718337833881378174e-02,-2.066832035779953003e-02
1.679000000000000000e+03,7.000000000000000000e+00,8.000000119209289551e-01,1.390081116880992340e-08,1.226797419207059647e-08,4.193210124969482422e+00,-1.711852476000785828e-02,-2.050355263054370880e-02
1.680000000000000000e+03,7.099999904632568359e+00,8.000000119209289551e-01,1.410073569019232309e-08,1.260199677943774077e-08,4.193315505981445312e+00,-1.705837063491344452e-02,-2.035362087190151215e-02
1.681000000000000000e+03,7.199999809265136719e+00,8.000000119209289551e-01,1.430066465246682128e-08,1.294079066127551414e-08,4.193410873413085938e+00,-1.700268313288688660e-02,-2.021747455000877380e-02
1.682000000000000000e+03,7.300000190734863281e+00,8.000000119209289551e-01,1.450059805563341797e-08,1.328435761394075598e-08,4.193496227264404297e+00,-1.695123128592967987e-02,-2.009419538080692291e-02
1.683000000000000000e+03,7.400000095367431641e+00,8.000000119209289551e-01,1.470053323515685406e-08,1.363269319654136780e-08,4.193573474884033203e+00,-1.690378226339817047e-02,-1.998255960643291473e-02
1.684000000000000000e+03,7.500000000000000000e+00,8.000000119209289551e-01,1.490047107921554925e-08,1.398579918543418898e-08,4.193642616271972656e+00,-1.686010695993900299e-02,-1.988193392753601074e-02
1.685000000000000000e+03,7.599999904632568359e+00,8.000000119209289551e-01,1.510041158780950354e-08,1.434367380426238014e-08,4.193704605102539062e+00,-1.681998558342456818e-02,-1.979137584567070007e-02
1.686000000000000000e+03,7.699999809265136719e+00,8.000000119209289551e-01,1.530035476093871694e-08,1.470631705302594128e-08,4.193759441375732422e+00,-1.678319647908210754e-02,-1.971007883548736572e-02
1.687000000000000000e+03,7.800000190734863281e+00,8.000000119209289551e-01,1.550029971042476973e-08,1.507372893172487238e-08,4.193808555603027344e+00,-1.674952916800975800e-02,-1.963737420737743378e-02
1.688000000000000000e+03,7.900000095367431641e+00,8.000000119209289551e-01,1.570024465991082252e-08,1.544590766400233406e-08,4.193851947784423828e+00,-1.671878062188625336e-02,-1.957228220999240875e-02
1.689000000000000000e+03,8.000000000000000000e+00,8.000000119209289551e-01,1.590019316211055411e-08,1.582285236167990661e-08,4.193890094757080078e+00,-1.669075153768062592e-02,-1.951440423727035522e-02
1.690000000000000000e+03,8.100000381469726562e+00,8.000000119209289551e-01,1.610014166431028571e-08,1.620456657747126883e-08,4.193923950195312500e+00,-1.666525751352310181e-02,-1.946312561631202698e-02
1.691000000000000000e+03,8.199999809265136719e+00,8.000000119209289551e-01,1.630009016651001730e-08,1.659104142959222372e-08,4.193953514099121094e+00,-1.664211414754390717e-02,-1.941749826073646545e-02
1.692000000000000000e+03,8.300000190734863281e+00,8.000000119209289551e-01,1.650004222142342769e-08,1.698228579982696829e-08,4.193979263305664062e+00,-1.662115193903446198e-02,-1.937762275338172913e-02
1.693000000000000000e+03,8.399999618530273438e+00,8.000000119209289551e-01,1.669999249997999868e-08,1.737829080639130552e-08,4.194001674652099609e+00,-1.660220697522163391e-02,-1.934226788580417633e-02
1.694000000000000000e+03,8.500000000000000000e+00,8.000000119209289551e-01,1.689994633125024848e-08,1.777906355471259303e-08,4.194020748138427734e+00,-1.658512279391288757e-02,-1.931170374155044556e-02
1.695000000000000000e+03,8.600000381469726562e+00,8.000000119209289551e-01,1.709989838616365887e-08,1.818460049207715201e-08,4.194037437438964844e+00,-1.656975597143173218e-02,-1.928495056927204132e-02
1.696000000000000000e+03,8.699999809265136719e+00,8.000000119209289551e-01,1.729985044107706926e-08,1.859489806577130366e-08,4.194051742553710938e+00,-1.655596867203712463e-02,-1.926161348819732666e-02
1.697000000000000000e+03,8.800000190734863281e+00,8.000000119209289551e-01,1.749980604870415846e-08,1.900996160486556619e-08,4.194063186645507812e+00,-1.654362864792346954e-02,-1.924187690019607544e-02
1.698000000000000000e+03,8.899999618530273438e+00,8.000000119209289551e-01,1.769975810361756885e-08,1.942978400393258198e-08,4.194073200225830078e+00,-1.653261855244636536e-02,-1.922467723488807678e-02
1.699000000000000000e+03,9.000000000000000000e+00,8.000000119209289551e-01,1.789971371124465804e-08,1.985437236839970865e-08,4.194081306457519531e+00,-1.652281917631626129e-02,-1.921043358743190765e-02
1.700000000000000000e+03,9.100000381469726562e+00,8.000000119209289551e-01,1.809966931887174724e-08,2.028372314555326739e-08,4.194087982177734375e+00,-1.651412993669509888e-02,-1.919832080602645874e-02
1.701000000000000000e+03,9.199999809265136719e+00,8.000000119209289551e-01,1.829962137378515763e-08,2.071783278267957940e-08,4.194093227386474609e+00,-1.650644838809967041e-02,-1.918807998299598694e-02
1.702000000000000000e+03,9.300000190734863281e+00,8.000000119209289551e-01,1.849957698141224682e-08,2.115670660884916288e-08,4.194097518920898438e+00,-1.649968326091766357e-02,-1.918002404272556305e-02
1.703000000000000000e+03,9.399999618530273438e+00,8.000000119209289551e-01,1.869953081268249662e-08,2.160033929499149963e-08,4.194100379943847656e+00,-1.649374887347221375e-02,-1.917321234941482544e-02
1.704000000000000000e+03,9.500000000000000000e+00,8.000000119209289551e-01,1.889948642030958581e-08,2.204873617017710785e-08,4.194102764129638672e+00,-1.648856699466705322e-02,-1.916817761957645416e-02
1.705000000000000000e+03,9.600000381469726562e+00,8.000000119209289551e-01,1.909944202793667500e-08,2.250189368169230875e-08,4.194104194641113281e+00,-1.648406498134136200e-02,-1.916420087218284607e-02
1.706000000000000000e+03,9.699999809265136719e+00,8.000000119209289551e-01,1.929939585920692480e-08,2.295980827682342351e-08,4.194104671478271484e+00,-1.648017205297946930e-02,-1.916112005710601807e-02
1.707000000000000000e+03,9.800000190734863281e+00,8.000000119209289551e-01,1.949935146683401399e-08,2.342248706099780975e-08,4.194104671478271484e+00,-1.647683046758174896e-02,-1.915934123098850250e-02
1.708000000000000000e+03,9.899999618530273438e+00,8.000000119209289551e-01,1.969930352174742438e-08,2.388992292878810986e-08,4.194104194641113281e+00,-1.647397875785827637e-02,-1.915800385177135468e-02
1.709000000000000000e+03,1.000000000000000000e+01,8.000000119209289551e-01,1.989925912937451358e-08,2.436212298562168144e-08,4.194103717803955078e+00,-1.647156849503517151e-02,-1.915772631764411926e-02
1.710000000000000000e+03,1.010000038146972656e+01,8.000000119209289551e-01,2.009921473700160277e-08,2.483908190242800629e-08,4.194102287292480469e+00,-1.646954938769340515e-02,-1.915785856544971466e-02
1.711000000000000000e+03,1.019999980926513672e+01,8.000000119209289551e-01,2.029916856827185256e-08,2.532079790285024501e-08,4.194101333618164062e+00,-1.646787859499454498e-02,-1.915829069912433624e-02
1.712000000000000000e+03,1.030000019073486328e+01,8.000000119209289551e-01,2.049912239954210236e-08,2.580727809231575520e-08,4.194099426269531250e+00,-1.646651513874530792e-02,-1.915952190756797791e-02
1.713000000000000000e+03,1.039999961853027344e+01,8.000000119209289551e-01,2.069907623081235215e-08,2.629851358904033987e-08,4.194097518920898438e+00,-1.646542362868785858e-02,-1.916071027517318726e-02
1.714000000000000000e+03,1.050000000000000000e+01,8.000000119209289551e-01,2.089903006208260194e-08,2.679451327480819600e-08,4.194095611572265625e+00,-1.646457053720951080e-02,-1.916255988180637360e-02
1.715000000000000000e+03,1.060000038146972656e+01,8.000000119209289551e-01,2.109898566970969114e-08,2.729527182054880541e-08,4.194093704223632812e+00,-1.646392792463302612e-02,-1.916443742811679840e-02
1.716000000000000000e+03,1.069999980926513672e+01,8.000000119209289551e-01,2.129893772462310153e-08,2.780078567354848929e-08,4.194091796875000000e+00,-1.646346598863601685e-02,-1.916629262268543243e-02
1.717000000000000000e+03,1.080000019073486328e+01,8.000000119209289551e-01,2.149889333225019072e-08,2.831106371559144463e-08,4.194089889526367188e+00,-1.646316237747669220e-02,-1.916866004467010498e-02
1.718000000000000000e+03,1.089999961853027344e+01,8.000000119209289551e-01,2.169884538716360112e-08,2.882609706489347445e-08,4.194087505340576172e+00,-1.646299287676811218e-02,-1.917073130607604980e-02
1.719000000000000000e+03,1.100000000000000000e+01,8.000000119209289551e-01,2.189879921843385091e-08,2.934589460323877574e-08,4.194085597991943359e+00,-1.646294072270393372e-02,-1.917324401438236237e-02
1.720000000000000000e+03,1.110000038146972656e+01,8.000000119209289551e-01,2.209875304970410070e-08,2.987044922519999091e-08,4.194083213806152344e+00,-1.646298728883266449e-02,-1.917559094727039337e-02
1.721000000000000000e+03,1.119999980926513672e+01,8.000000119209289551e-01,2.229870510461751110e-08,3.039976093077711994e-08,4.194081306457519531e+00,-1.646311581134796143e-02,-1.917775161564350128e-02
1.722000000000000000e+03,1.130000019073486328e+01,8.000000119209289551e-01,2.249866071224460029e-08,3.093383682539752044e-08,4.194079399108886719e+00,-1.646331325173377991e-02,-1.918027922511100769e-02
1.723000000000000000e+03,1.139999961853027344e+01,8.000000119209289551e-01,2.269861276715801068e-08,3.147266625092015602e-08,4.194077491760253906e+00,-1.646356843411922455e-02,-1.918238960206508636e-02
1.724000000000000000e+03,1.150000000000000000e+01,8.000000119209289551e-01,2.289856659842826048e-08,3.201625986548606306e-08,4.194075584411621094e+00,-1.646386831998825073e-02,-1.918483711779117584e-02
1.725000000000000000e+03,1.160000038146972656e+01,8.000000119209289551e-01,2.309852042969851027e-08,3.256461056366788398e-08,4.194073677062988281e+00,-1.646420359611511230e-02,-1.918703317642211914e-02
1.726000000000000000e+03,1.169999980926513672e+01,8.000000119209289551e-01,2.329847070825508126e-08,3.311771834546561877e-08,4.194071769714355469e+00,-1.646456867456436157e-02,-1.918896846473217010e-02
1.727000000000000000e+03,1.180000019073486328e+01,8.000000119209289551e-01,2.349842453952533106e-08,3.367559031630662503e-08,4.194070339202880859e+00,-1.646495237946510315e-02,-1.919121295213699341e-02
1.728000000000000000e+03,1.189999961853027344e+01,8.000000119209289551e-01,2.369837659443874145e-08,3.423821226533618756e-08,4.194068908691406250e+00,-1.646534912288188934e-02,-1.919299177825450897e-02
1.729000000000000000e+03,1.200000000000000000e+01,8.000000119209289551e-01,2.389833042570899124e-08,3.480560195612270036e-08,4.194067001342773438e+00,-1.646575517952442169e-02,-1.919507235288619995e-02
1.730000000000000000e+03,1.210000038146972656e+01,8.000000119209289551e-01,2.409828425697924104e-08,3.537775228323880583e-08,4.194066047668457031e+00,-1.646616496145725250e-02,-1.919687166810035706e-02
1.731000000000000000e+03,1.219999980926513672e+01,8.000000119209289551e-01,2.429823453553581203e-08,3.595465258854346757e-08,4.194064617156982422e+00,-1.646657474339008331e-02,-1.919838972389698029e-02
1.732000000000000000e+03,1.230000019073486328e+01,8.000000119209289551e-01,2.449818836680606182e-08,3.653632063560507959e-08,4.194063186645507812e+00,-1.646697893738746643e-02,-1.920020394027233124e-02
1.733000000000000000e+03,1.239999961853027344e+01,8.000000119209289551e-01,2.469814042171947222e-08,3.712273866085524787e-08,4.194062232971191406e+00,-1.646737754344940186e-02,-1.920154318213462830e-02
1.734000000000000000e+03,1.250000000000000000e+01,8.000000119209289551e-01,2.489809247663288261e-08,3.771392442786236643e-08,4.194060802459716797e+00,-1.646776683628559113e-02,-1.920318044722080231e-02
1.735000000000000000e+03,1.260000038146972656e+01,8.000000119209289551e-01,2.509804630790313240e-08,3.830986727848539886e-08,4.194059848785400391e+00,-1.646814681589603424e-02,-1.920453831553459167e-02
1.736000000000000000e+03,1.269999980926513672e+01,8.000000119209289551e-01,2.529799658645970339e-08,3.891056366001066635e-08,4.194058895111083984e+00,-1.646851189434528351e-02,-1.920562051236629486e-02
1.737000000000000000e+03,1.280000019073486328e+01,8.000000119209289551e-01,2.549795041772995319e-08,3.951602423057920532e-08,4.194057941436767578e+00,-1.646886393427848816e-02,-1.920700632035732269e-02
1.738000000000000000e+03,1.289999961853027344e+01,8.000000119209289551e-01,2.569790069628652418e-08,4.012624188476365816e-08,4.194057464599609375e+00,-1.646920293569564819e-02,-1.920792646706104279e-02
1.739000000000000000e+03,1.300000000000000000e+01,8.000000119209289551e-01,2.589785452755677397e-08,4.074122017527770367e-08,4.194056510925292969e+00,-1.646952517330646515e-02,-1.920915581285953522e-02
1.740000000000000000e+03,1.310000038146972656e+01,8.000000119209289551e-01,2.609780658247018437e-08,4.136095910212134186e-08,4.194055557250976562e+00,-1.646983250975608826e-02,-1.921012066304683685e-02
1.741000000000000000e+03,1.319999980926513672e+01,8.000000119209289551e-01,2.629775863738359476e-08,4.198545155986721511e-08,4.194055080413818359e+00,-1.647012494504451752e-02,-1.921082474291324615e-02
1.742000000000000000e+03,1.330000019073486328e+01,8.000000119209289551e-01,2.649771069229700515e-08,4.261470820665635983e-08,4.194054603576660156e+00,-1.647040247917175293e-02,-1.921184547245502472e-02
1.743000000000000000e+03,1.339999961853027344e+01,8.000000119209289551e-01,2.669766274721041555e-08,4.324871838434773963e-08,4.194054126739501953e+00,-1.647066324949264526e-02,-1.921241916716098785e-02
1.744000000000000000e+03,1.350000000000000000e+01,8.000000119209289551e-01,2.689761480212382594e-08,4.388749275108239090e-08,4.194053649902343750e+00,-1.647091098129749298e-02,-1.921331882476806641e-02
1.745000000000000000e+03,1.360000038146972656e+01,8.000000119209289551e-01,2.709756863339407573e-08,4.453102775414663483e-08,4.194053173065185547e+00,-1.647114381194114685e-02,-1.921396888792514801e-02
1.746000000000000000e+03,1.369999980926513672e+01,8.000000119209289551e-01,2.729751891195064673e-08,4.517931273539943504e-08,4.194052696228027344e+00,-1.647136174142360687e-02,-1.921437308192253113e-02
1.747000000000000000e+03,1.380000019073486328e+01,8.000000119209289551e-01,2.749747274322089652e-08,4.583236545840918552e-08,4.194052219390869141e+00,-1.647156849503517151e-02,-1.921511068940162659e-02
1.748000000000000000e+03,1.389999961853027344e+01,8.000000119209289551e-01,2.769742302177746751e-08,4.649017171232117107e-08,4.194051742553710938e+00,-1.647176407277584076e-02,-1.921541802585124969e-02
1.749000000000000000e+03,1.400000000000000000e+01,8.000000119209289551e-01,2.789737507669087790e-08,4.715274215527642809e-08,4.194051265716552734e+00,-1.647194847464561462e-02,-1.921606250107288361e-02
1.750000000000000000e+03,1.410000038146972656e+01,8.000000119209289551e-01,2.809732890796112770e-08,4.782006968184759899e-08,4.194051265716552734e+00,-1.647212356328964233e-02,-1.921647228300571442e-02
1.751000000000000000e+03,1.419999980926513672e+01,8.000000119209289551e-01,2.829727918651769869e-08,4.849215429203468375e-08,4.194050788879394531e+00,-1.647229120135307312e-02,-1.921664923429489136e-02
1.752000000000000000e+03,1.430000019073486328e+01,8.000000119209289551e-01,2.849723301778794848e-08,4.916899953855136118e-08,4.194050788879394531e+00,-1.647245325148105621e-02,-1.921717263758182526e-02
1.753000000000000000e+03,1.439999961853027344e+01,8.000000119209289551e-01,2.869718329634451948e-08,4.985060186868395249e-08,4.194050312042236328e+00,-1.647261157631874084e-02,-1.921727135777473450e-02
1.754000000000000000e+03,1.450000000000000000e+01,8.000000119209289551e-01,2.889713535125792987e-08,5.053696483514613647e-08,4.194050312042236328e+00,-1.647276617586612701e-02,-1.921771652996540070e-02
1.755000000000000000e+03,1.460000038146972656e+01,8.000000119209289551e-01,2.909708918252817966e-08,5.122809199065159191e-08,4.194049835205078125e+00,-1.647292263805866241e-02,-1.921793445944786072e-02
1.756000000000000000e+03,1.469999980926513672e+01,8.000000119209289551e-01,2.929703946108475066e-08,5.192396912434560363e-08,4.194049835205078125e+00,-1.647308096289634705e-02,-1.921792142093181610e-02
1.757000000000000000e+03,1.480000019073486328e+01,8.000000119209289551e-01,2.949699151599816105e-08,5.262461044708288682e-08,4.194049358367919922e+00,-1.647324673831462860e-02,-1.921825483441352844e-02
1.758000000000000000e+03,1.489999961853027344e+01,8.000000119209289551e-01,2.969694357091157144e-08,5.333000530072240508e-08,4.194049358367919922e+00,-1.647342182695865631e-02,-1.921816542744636536e-02
1.759000000000000000e+03,1.500000000000000000e+01,8.000000119209289551e-01,2.989689562582498183e-08,5.404016789611887361e-08,4.194049358367919922e+00,-1.647361181676387787e-02,-1.921841688454151154e-02
1.760000000000000000e+03,1.510000038146972656e+01,8.000000119209289551e-01,3.009684945709523163e-08,5.475508757513125602e-08,4.194048881530761719e+00,-1.647382043302059174e-02,-1.921843178570270538e-02
1.761000000000000000e+03,1.519999980926513672e+01,8.000000119209289551e-01,3.029679973565180262e-08,5.547476078504587349e-08,4.194048881530761719e+00,-1.647405140101909637e-02,-1.921820454299449921e-02
1.762000000000000000e+03,1.530000019073486328e+01,8.000000119209289551e-01,3.049675356692205241e-08,5.619919818400376244e-08,4.194048881530761719e+00,-1.647431403398513794e-02,-1.921830512583255768e-02
1.763000000000000000e+03,1.539999961853027344e+01,8.000000119209289551e-01,3.069670384547862341e-08,5.692838911386388645e-08,4.194048404693603516e+00,-1.647461391985416412e-02,-1.921796053647994995e-02
1.764000000000000000e+03,1.550000000000000000e+01,8.000000119209289551e-01,3.089665412403519440e-08,5.766234423276728194e-08,4.194048404693603516e+00,-1.647495850920677185e-02,-1.921793073415756226e-02
1.765000000000000000e+03,1.560000038146972656e+01,8.000000119209289551e-01,3.109660795530544419e-08,5.840105998800027010e-08,4.194048404693603516e+00,-1.647535711526870728e-02,-1.921762712299823761e-02
1.766000000000000000e+03,1.569999980926513672e+01,8.000000119209289551e-01,3.129655823386201519e-08,5.914452927413549332e-08,4.194048404693603516e+00,-1.647582277655601501e-02,-1.921703852713108063e-02
1.767000000000000000e+03,1.580000019073486328e+01,8.000000119209289551e-01,3.149651206513226498e-08,5.989276274931398802e-08,4.194047927856445312e+00,-1.647636480629444122e-02,-1.921672932803630829e-02
1.768000000000000000e+03,1.589999961853027344e+01,8.000000119209289551e-01,3.169646234368883597e-08,6.064574620268103899e-08,4.194047927856445312e+00,-1.647699810564517975e-02,-1.921590976417064667e-02
1.769000000000000000e+03,1.600000000000000000e+01,8.000000119209289551e-01,3.189641617495908577e-08,6.140349739780504024e-08,4.194047927856445312e+00,-1.647773943841457367e-02,-1.921533234417438507e-02
1.770000000000000000e+03,1.610000038146972656e+01,8.000000119209289551e-01,3.209636645351565676e-08,6.216600922925863415e-08,4.194047927856445312e+00,-1.647860370576381683e-02,-1.921439729630947113e-02
1.771000000000000000e+03,1.620000076293945312e+01,8.000000119209289551e-01,3.229632028478590655e-08,6.293328169704182073e-08,4.194047451019287109e+00,-1.647961698472499847e-02,-1.921326853334903717e-02
1.772000000000000000e+03,1.629999923706054688e+01,8.000000119209289551e-01,3.249627056334247754e-08,6.370530059029988479e-08,4.194047451019287109e+00,-1.648079790174961090e-02,-1.921153068542480469e-02
1.773000000000000000e+03,1.639999961853027344e+01,8.000000119209289551e-01,3.269622084189904854e-08,6.448208722531489911e-08,4.194047451019287109e+00,-1.648217439651489258e-02,-1.921030506491661072e-02
1.774000000000000000e+03,1.650000000000000000e+01,8.000000119209289551e-01,3.289617467316929833e-08,6.526363449665950611e-08,4.194047451019287109e+00,-1.648377813398838043e-02,-1.920839585363864899e-02
1.775000000000000000e+03,1.660000038146972656e+01,8.000000119209289551e-01,3.309612850443954812e-08,6.604994240433370578e-08,4.194047451019287109e+00,-1.648564264178276062e-02,-1.920614205300807953e-02
1.776000000000000000e+03,1.670000076293945312e+01,8.000000119209289551e-01,3.329608233570979792e-08,6.684101094833749812e-08,4.194047927856445312e+00,-1.648780703544616699e-02,-1.920349337160587311e-02
1.777000000000000000e+03,1.679999923706054688e+01,8.000000119209289551e-01,3.349602906155269011e-08,6.763681881238881033e-08,4.194047927856445312e+00,-1.649031415581703186e-02,-1.920000649988651276e-02
1.778000000000000000e+03,1.689999961853027344e+01,8.000000119209289551e-01,3.369598289282293990e-08,6.843740152362443041e-08,4.194048404693603516e+00,-1.649321615695953369e-02,-1.919676735997200012e-02
1.779000000000000000e+03,1.700000000000000000e+01,8.000000119209289551e-01,3.389593672409318970e-08,6.924274487118964316e-08,4.194048881530761719e+00,-1.649656705558300018e-02,-1.919255405664443970e-02
1.780000000000000000e+03,1.710000038146972656e+01,8.000000119209289551e-01,3.409589055536343949e-08,7.005284885508444859e-08,4.194049835205078125e+00,-1.650043204426765442e-02,-1.918766647577285767e-02
1.781000000000000000e+03,1.720000076293945312e+01,8.000000119209289551e-01,3.429584083392001048e-08,7.086771347530884668e-08,4.194050788879394531e+00,-1.650488562881946564e-02,-1.918201893568038940e-02
1.782000000000000000e+03,1.729999923706054688e+01,8.000000119209289551e-01,3.449579111247658147e-08,7.168731741558076465e-08,4.194052219390869141e+00,-1.651000604033470154e-02,-1.917512714862823486e-02
1.783000000000000000e+03,1.739999961853027344e+01,8.000000119209289551e-01,3.469574494374683127e-08,7.251170330846434808e-08,4.194054126739501953e+00,-1.651589013636112213e-02,-1.916803978383541107e-02
1.784000000000000000e+03,1.750000000000000000e+01,8.000000119209289551e-01,3.489569877501708106e-08,7.334084273225016659e-08,4.194056510925292969e+00,-1.652264408767223358e-02,-1.915949396789073944e-02
1.785000000000000000e+03,1.760000038146972656e+01,8.000000119209289551e-01,3.509565260628733085e-08,7.417474279236557777e-08,4.194059371948242188e+00,-1.653038337826728821e-02,-1.914975792169570923e-02
1.786000000000000000e+03,1.770000076293945312e+01,8.000000119209289551e-01,3.529560643755758065e-08,7.501340348881058162e-08,4.194063663482666016e+00,-1.653924956917762756e-02,-1.913870871067047119e-02
1.787000000000000000e+03,1.779999923706054688e+01,8.000000119209289551e-01,3.549556026882783044e-08,7.585680350530310534e-08,4.194068431854248047e+00,-1.654939353466033936e-02,-1.912584714591503143e-02
1.788000000000000000e+03,1.789999961853027344e+01,8.000000119209289551e-01,3.569551410009808023e-08,7.670498547440729453e-08,4.194075107574462891e+00,-1.656099222600460052e-02,-1.911221817135810852e-02
1.789000000000000000e+03,1.800000000000000000e+01,8.000000119209289551e-01,3.589546793136833003e-08,7.755792097441371880e-08,4.194083690643310547e+00,-1.657423935830593109e-02,-1.909657754004001617e-02
1.790000000000000000e+03,1.810000038146972656e+01,8.000000119209289551e-01,3.609542531535225862e-08,7.841561711074973573e-08,4.194094181060791016e+00,-1.658935286104679108e-02,-1.907925307750701904e-02
1.791000000000000000e+03,1.820000076293945312e+01,8.000000119209289551e-01,3.629538269933618722e-08,7.927807388341534534e-08,4.194107532501220703e+00,-1.660656556487083435e-02,-1.906024292111396790e-02
1.792000000000000000e+03,1.829999923706054688e+01,8.000000119209289551e-01,3.649533653060643701e-08,8.014526997612847481e-08,4.194124698638916016e+00,-1.662612333893775940e-02,-1.903924345970153809e-02
1.793000000000000000e+03,1.839999961853027344e+01,8.000000119209289551e-01,3.669529746730404440e-08,8.101724091602591216e-08,4.194145679473876953e+00,-1.664826273918151855e-02,-1.901762560009956360e-02
1.794000000000000000e+03,1.850000000000000000e+01,8.000000119209289551e-01,3.689525840400165180e-08,8.189397249225294217e-08,4.194172382354736328e+00,-1.667318120598793030e-02,-1.899463869631290436e-02
1.795000000000000000e+03,1.860000038146972656e+01,8.000000119209289551e-01,3.709522289341293799e-08,8.277545759938220726e-08,4.194205760955810547e+00,-1.670096255838871002e-02,-1.897135563194751740e-02
1.796000000000000000e+03,1.870000076293945312e+01,8.000000119209289551e-01,3.729518738282422419e-08,8.366170334284106502e-08,4.194247245788574219e+00,-1.673147454857826233e-02,-1.894886791706085205e-02
1.797000000000000000e+03,1.879999923706054688e+01,8.000000119209289551e-01,3.749515187223551038e-08,8.455268840634744265e-08,4.194298267364501953e+00,-1.676414534449577332e-02,-1.892844401299953461e-02
1.798000000000000000e+03,1.889999961853027344e+01,8.000000119209289551e-01,3.769512701978783298e-08,8.544844121161077055e-08,4.194360733032226562e+00,-1.679762639105319977e-02,-1.891365461051464081e-02
1.799000000000000000e+03,1.900000000000000000e+01,8.000000119209289551e-01,3.789510216734015557e-08,8.634895465320369112e-08,4.194436550140380859e+00,-1.682918146252632141e-02,-1.890674047172069550e-02
1.800000000000000000e+03,1.910000038146972656e+01,8.000000119209289551e-01,3.809508442031983577e-08,8.725422162569884676e-08,4.194526672363281250e+00,-1.685373671352863312e-02,-1.891262829303741455e-02
1.801000000000000000e+03,1.920000076293945312e+01,8.000000119209289551e-01,3.829507022601319477e-08,8.816423502366887988e-08,4.194630622863769531e+00,-1.686239615082740784e-02,-1.893693022429943085e-02
1.802000000000000000e+03,1.929999923706054688e+01,8.000000119209289551e-01,3.849505603170655377e-08,8.907898063625907525e-08,4.194746494293212891e+00,-1.684047281742095947e-02,-1.898528635501861572e-02
1.803000000000000000e+03,1.939999961853027344e+01,8.000000119209289551e-01,3.869505249554094917e-08,8.999848688517886330e-08,4.194869518280029297e+00,-1.676544919610023499e-02,-1.906337030231952667e-02
1.804000000000000000e+03,1.950000000000000000e+01,8.000000119209289551e-01,3.889505251208902337e-08,9.092274666500088642e-08,4.194990158081054688e+00,-1.660678349435329437e-02,-1.916918531060218811e-02
1.805000000000000000e+03,1.960000038146972656e+01,8.000000119209289551e-01,3.909505252863709757e-08,9.185175287029778701e-08,4.195095539093017578e+00,-1.633112132549285889e-02,-1.929126866161823273e-02
1.806000000000000000e+03,1.970000076293945312e+01,8.000000119209289551e-01,3.929504899247149297e-08,9.278550550106956507e-08,4.195172309875488281e+00,-1.591694727540016174e-02,-1.940174773335456848e-02
1.807000000000000000e+03,1.979999923706054688e+01,8.000000119209289551e-01,3.949503835087853076e-08,9.372399745188886300e-08,4.195210933685302734e+00,-1.537704095244407654e-02,-1.945766620337963104e-02
1.808000000000000000e+03,1.989999961853027344e+01,8.000000119209289551e-01,3.969502415657188976e-08,9.466727135531982640e-08,4.195213317871093750e+00,-1.477615721523761749e-02,-1.941524073481559753e-02
1.809000000000000000e+03,2.000000000000000000e+01,8.000000119209289551e-01,3.989499930412421236e-08,9.561532721136245527e-08,4.195196628570556641e+00,-1.422362495213747025e-02,-1.924807392060756683e-02
1.810000000000000000e+03,0.000000000000000000e+00,8.999999761581420898e-01,2.090662871798202136e-37,7.088437453220872007e-38,3.942102909088134766e+00,1.182630896568298340e+00,3.374623060226440430e-01
1.811000000000000000e+03,1.000000014901161194e-01,8.999999761581420898e-01,1.708244656839497111e-10,4.178104737184717976e-11,3.893460750579833984e+00,1.020490050315856934e+00,2.959414720535278320e-01
1.812000000000000000e+03,2.000000029802322388e-01,8.999999761581420898e-01,3.459302011510345665e-10,9.126452371610582759e-11,3.942431449890136719e+00,8.840354084968566895e-01,3.127498328685760498e-01
1.813000000000000000e+03,3.000000119209289551e-01,8.999999761581420898e-01,5.252043799863770346e-10,1.471661403851243222e-10,3.989968061447143555e+00,7.507031559944152832e-01,3.156914114952087402e-01
1.814000000000000000e+03,4.000000059604644775e-01,8.999999761581420898e-01,7.083331143853399681e-10,2.082035516215441362e-10,4.033650875091552734e+00,6.264890432357788086e-01,3.058129549026489258e-01
1.815000000000000000e+03,5.000000000000000000e-01,8.999999761581420898e-01,8.948412011378081843e-10,2.732292725404761313e-10,4.071342468261718750e+00,5.155755877494812012e-01,2.855966389179229736e-01
1.816000000000000000e+03,6.000000238418579102e-01,8.999999761581420898e-01,1.084160650144383453e-09,3.413208327085470728e-10,4.101676464080810547e+00,4.198937416076660156e-01,2.582460641860961914e-01
1.817000000000000000e+03,6.999999880790710449e-01,8.999999761581420898e-01,1.275704430980795223e-09,4.118153318355410875e-10,4.124251365661621094e+00,3.394412994384765625e-01,2.269512116909027100e-01
1.818000000000000000e+03,8.000000119209289551e-01,8.999999761581420898e-01,1.468924870628995905e-09,4.842972134433409792e-10,4.139518260955810547e+00,2.729612886905670166e-01,1.943893432617187500e-01
1.819000000000000000e+03,8.999999761581420898e-01,8.999999761581420898e-01,1.663349014080495181e-09,5.585577000921659874e-10,4.148489475250244141e+00,2.186062484979629517e-01,1.625209599733352661e-01
1.820000000000000000e+03,1.000000000000000000e+00,8.999999761581420898e-01,1.858591835990353047e-09,6.345448611000392702e-10,4.152422428131103516e+00,1.744090765714645386e-01,1.326095014810562134e-01
1.821000000000000000e+03,1.100000023841857910e+00,8.999999761581420898e-01,2.054354464320340412e-09,7.123163725530901047e-10,4.152576923370361328e+00,1.385421752929687500e-01,1.053534150123596191e-01
1.822000000000000000e+03,1.200000047683715820e+00,8.999999761581420898e-01,2.250413855264810081e-09,7.920005762329651589e-10,4.150071144104003906e+00,1.094248816370964050e-01,8.104492723941802979e-02
1.823000000000000000e+03,1.299999952316284180e+00,8.999999761581420898e-01,2.446608915462888945e-09,8.737672807512808504e-10,4.145823478698730469e+00,8.574397861957550049e-02,5.971019342541694641e-02
1.824000000000000000e+03,1.399999976158142090e+00,8.999999761581420898e-01,2.642828844656719411e-09,9.578077220240288625e-10,4.140547752380371094e+00,6.643305718898773193e-02,4.121574759483337402e-02
1.825000000000000000e+03,1.500000000000000000e+00,8.999999761581420898e-01,2.838999479948256521e-09,1.044319852816499861e-09,4.134774208068847656e+00,5.063722655177116394e-02,2.534278482198715210e-02
1.826000000000000000e+03,1.600000023841857910e+00,8.999999761581420898e-01,3.035074636059675868e-09,1.133500071581750035e-09,4.128880977630615234e+00,3.767543658614158630e-02,1.183511316776275635e-02
1.827000000000000000e+03,1.700000047683715820e+00,8.999999761581420898e-01,3.231028333772201222e-09,1.225537560323175512e-09,4.123128414154052734e+00,2.700639888644218445e-02,4.287934280000627041e-04
1.828000000000000000e+03,1.799999952316284180e+00,8.999999761581420898e-01,3.426848360632561707e-09,1.320610842903136017e-09,4.117685794830322266e+00,1.819979026913642883e-02,-9.130806662142276764e-03
1.829000000000000000e+03,1.899999976158142090e+00,8.999999761581420898e-01,3.622533384373127774e-09,1.418887007886837637e-09,4.112656593322753906e+00,1.091274898499250412e-02,-1.708020828664302826e-02
1.830000000000000000e+03,2.000000000000000000e+00,8.999999761581420898e-01,3.818087179752183147e-09,1.520520154230098342e-09,4.108094692230224609e+00,4.871266894042491913e-03,-2.363363280892372131e-02
1.831000000000000000e+03,2.099999904632568359e+00,8.999999761581420898e-01,4.013518850598529752e-09,1.625651835368557840e-09,4.104021549224853516e+00,-1.445370144210755825e-04,-2.898222766816616058e-02
1.832000000000000000e+03,2.200000047683715820e+00,8.999999761581420898e-01,4.208839499142413842e-09,1.734411947396097275e-09,4.100434303283691406e+00,-4.311922937631607056e-03,-3.329480811953544617e-02
1.833000000000000000e+03,2.299999952316284180e+00,8.999999761581420898e-01,4.404060671703291518e-09,1.846918173953326914e-09,4.097315311431884766e+00,-7.774438243359327316e-03,-3.671911731362342834e-02
1.834000000000000000e+03,2.400000095367431641e+00,8.999999761581420898e-01,4.599195690957458282e-09,1.963278428718240320e-09,4.094637870788574219e+00,-1.064896769821643829e-02,-3.938432037830352783e-02
1.835000000000000000e+03,2.500000000000000000e+00,8.999999761581420898e-01,4.794256547313580086e-09,2.083589523138584809e-09,4.092367649078369141e+00,-1.303112786263227463e-02,-4.140242561697959900e-02
1.836000000000000000e+03,2.599999904632568359e+00,8.999999761581420898e-01,4.989254787091113030e-09,2.207940053011725468e-09,4.090469837188720703e+00,-1.499958056956529617e-02,-4.287089407444000244e-02
1.837000000000000000e+03,2.700000047683715820e+00,8.999999761581420898e-01,5.184202400698723068e-09,2.336410398484645157e-09,4.088907718658447266e+00,-1.661935262382030487e-02,-4.387407377362251282e-02
1.838000000000000000e+03,2.799999952316284180e+00,8.999999761581420898e-01,5.379108269920607199e-09,2.469071835875524812e-09,4.087645530700683594e+00,-1.794447377324104309e-02,-4.448486492037773132e-02
1.839000000000000000e+03,2.900000095367431641e+00,8.999999761581420898e-01,5.573982608808591976e-09,2.605990090387422242e-09,4.086647987365722656e+00,-1.902006939053535461e-02,-4.476661235094070435e-02
1.840000000000000000e+03,3.000000000000000000e+00,8.999999761581420898e-01,5.768832522790035000e-09,2.747223559751432731e-09,4.085884094238281250e+00,-1.988400146365165710e-02,-4.477378726005554199e-02
1.841000000000000000e+03,3.099999904632568359e+00,8.999999761581420898e-01,5.963665117292293871e-09,2.892825090583528436e-09,4.085322856903076172e+00,-2.056818641722202301e-02,-4.455373436212539673e-02
1.842000000000000000e+03,3.200000047683715820e+00,8.999999761581420898e-01,6.158487941831936041e-09,3.042842866562978088e-09,4.084937095642089844e+00,-2.109965682029724121e-02,-4.414723813533782959e-02
1.843000000000000000e+03,3.299999952316284180e+00,8.999999761581420898e-01,6.353304549122640310e-09,3.197319076164717444e-09,4.084702014923095703e+00,-2.150138467550277710e-02,-4.358935356140136719e-02
1.844000000000000000e+03,3.400000095367431641e+00,8.999999761581420898e-01,6.548120268234924879e-09,3.356292355150003459e-09,4.084595203399658203e+00,-2.179298363626003265e-02,-4.291059449315071106e-02
1.845000000000000000e+03,3.500000000000000000e+00,8.999999761581420898e-01,6.742939095971678398e-09,3.519796676343389663e-09,4.084596157073974609e+00,-2.199124731123447418e-02,-4.213688522577285767e-02
1.846000000000000000e+03,3.599999904632568359e+00,8.999999761581420898e-01,6.937763696868159968e-09,3.687863125989565560e-09,4.084687232971191406e+00,-2.211060188710689545e-02,-4.129078239202499390e-02
1.847000000000000000e+03,3.700000047683715820e+00,8.999999761581420898e-01,7.132597179548838540e-09,3.860519459664146780e-09,4.084852695465087891e+00,-2.216347306966781616e-02,-4.039150476455688477e-02
1.848000000000000000e+03,3.799999952316284180e+00,8.999999761581420898e-01,7.327441320370553512e-09,4.037789658184465225e-09,4.085077762603759766e+00,-2.216058969497680664e-02,-3.945533186197280884e-02
1.849000000000000000e+03,3.900000095367431641e+00,8.999999761581420898e-01,7.522298339779354137e-09,4.219696592144828173e-09,4.085351467132568359e+00,-2.211122587323188782e-02,-3.849641233682632446e-02
1.850000000000000000e+03,4.000000000000000000e+00,8.999999761581420898e-01,7.717167349596820713e-09,4.406258025113629628e-09,4.085662364959716797e+00,-2.202341519296169281e-02,-3.752641007304191589e-02
1.851000000000000000e+03,4.099999904632568359e+00,8.999999761581420898e-01,7.912052346625841892e-09,4.597491720659263592e-09,4.086001396179199219e+00,-2.190411649644374847e-02,-3.655542805790901184e-02
1.852000000000000000e+03,4.199999809265136719e+00,8.999999761581420898e-01,8.106951554509578273e-09,4.793413665993284667e-09,4.086360454559326172e+00,-2.175936289131641388e-02,-3.559177368879318237e-02
1.853000000000000000e+03,4.300000190734863281e+00,8.999999761581420898e-01,8.301866749604869256e-09,4.994037183791988355e-09,4.086733341217041016e+00,-2.159438095986843109e-02,-3.464245051145553589e-02
1.854000000000000000e+03,4.400000095367431641e+00,8.999999761581420898e-01,8.496797043733295141e-09,5.199372488107201207e-09,4.087113857269287109e+00,-2.141369879245758057e-02,-3.371288254857063293e-02
1.855000000000000000e+03,4.500000000000000000e+00,8.999999761581420898e-01,8.691742436894855928e-09,5.409431125258379325e-09,4.087496757507324219e+00,-2.122122608125209808e-02,-3.280793502926826477e-02
1.856000000000000000e+03,4.599999904632568359e+00,8.999999761581420898e-01,8.886703817267971317e-09,5.624221977029719710e-09,4.087878704071044922e+00,-2.102033607661724091e-02,-3.193118423223495483e-02
1.857000000000000000e+03,4.699999809265136719e+00,8.999999761581420898e-01,9.081679408495801908e-09,5.843752148848579964e-09,4.088255882263183594e+00,-2.081393264234066010e-02,-3.108548372983932495e-02
1.858000000000000000e+03,4.800000190734863281e+00,8.999999761581420898e-01,9.276670986935187102e-09,6.068030078409947237e-09,4.088625431060791016e+00,-2.060450054705142975e-02,-3.027304820716381073e-02
1.859000000000000000e+03,4.900000095367431641e+00,8.999999761581420898e-01,9.471675888050867798e-09,6.297059762516710180e-09,4.088985443115234375e+00,-2.039416134357452393e-02,-2.949514985084533691e-02
1.860000000000000000e+03,5.000000000000000000e+00,8.999999761581420898e-01,9.666694111842843995e-09,6.530846086150177143e-09,4.089333534240722656e+00,-2.018471062183380127e-02,-2.875305712223052979e-02
1.861000000000000000e+03,5.099999904632568359e+00,8.999999761581420898e-01,9.861725658311115694e-09,6.769393934291656478e-09,4.089669227600097656e+00,-1.997766084969043732e-02,-2.804723754525184631e-02
1.862000000000000000e+03,5.199999809265136719e+00,8.999999761581420898e-01,1.005676963927726320e-08,7.012706859654826985e-09,4.089991092681884766e+00,-1.977427490055561066e-02,-2.737786248326301575e-02
1.863000000000000000e+03,5.300000190734863281e+00,8.999999761581420898e-01,1.025182605474128650e-08,7.260788414953367464e-09,4.090298652648925781e+00,-1.957559213042259216e-02,-2.674486301839351654e-02
1.864000000000000000e+03,5.400000095367431641e+00,8.999999761581420898e-01,1.044689312834634620e-08,7.513639488365697616e-09,4.090590953826904297e+00,-1.938245818018913269e-02,-2.614755369722843170e-02
1.865000000000000000e+03,5.500000000000000000e+00,8.999999761581420898e-01,1.064196997191402261e-08,7.771261856248656841e-09,4.090867996215820312e+00,-1.919554732739925385e-02,-2.558555081486701965e-02
1.866000000000000000e+03,5.599999904632568359e+00,8.999999761581420898e-01,1.083705747362273542e-08,8.033659071315923939e-09,4.091129779815673828e+00,-1.901538670063018799e-02,-2.505793049931526184e-02
1.867000000000000000e+03,5.699999809265136719e+00,8.999999761581420898e-01,1.103215385711564522e-08,8.300830245389079209e-09,4.091376304626464844e+00,-1.884236745536327362e-02,-2.456370741128921509e-02
1.868000000000000000e+03,5.800000190734863281e+00,8.999999761581420898e-01,1.122726001057117173e-08,8.572778043003381754e-09,4.091608047485351562e+00,-1.867677085101604462e-02,-2.410186082124710083e-02
1.869000000000000000e+03,5.900000095367431641e+00,8.999999761581420898e-01,1.142237238127563614e-08,8.849501575980411872e-09,4.091824531555175781e+00,-1.851877570152282715e-02,-2.367093041539192200e-02
1.870000000000000000e+03,6.000000000000000000e+00,8.999999761581420898e-01,1.161749363376429756e-08,9.131000844320169563e-09,4.092027664184570312e+00,-1.836847886443138123e-02,-2.326991967856884003e-02
1.871000000000000000e+03,6.099999904632568359e+00,8.999999761581420898e-01,1.181262110350189687e-08,9.417276736201074527e-09,4.092216491699218750e+00,-1.822589710354804993e-02,-2.289742603898048401e-02
1.872000000000000000e+03,6.199999809265136719e+00,8.999999761581420898e-01,1.200775479048843408e-08,9.708330139801546466e-09,4.092391967773437500e+00,-1.809099316596984863e-02,-2.255211025476455688e-02
1.873000000000000000e+03,6.300000190734863281e+00,8.999999761581420898e-01,1.220289558290232890e-08,1.000416105512158538e-08,4.092555046081542969e+00,-1.796367019414901733e-02,-2.223270200192928314e-02
1.874000000000000000e+03,6.400000095367431641e+00,8.999999761581420898e-01,1.239804170438674191e-08,1.030476592944751246e-08,4.092705726623535156e+00,-1.784378848969936371e-02,-2.193757519125938416e-02
1.875000000000000000e+03,6.500000000000000000e+00,8.999999761581420898e-01,1.259319226676325343e-08,1.061014742731458682e-08,4.092844963073730469e+00,-1.773117296397686005e-02,-2.166565321385860443e-02
1.876000000000000000e+03,6.599999904632568359e+00,8.999999761581420898e-01,1.278834727003186345e-08,1.092030466054438875e-08,4.092973232269287109e+00,-1.762561500072479248e-02,-2.141551673412322998e-02
1.877000000000000000e+03,6.699999809265136719e+00,8.999999761581420898e-01,1.298350671419257196e-08,1.123523585278007886e-08,4.093091011047363281e+00,-1.752688549458980560e-02,-2.118586562573909760e-02
1.878000000000000000e+03,6.800000190734863281e+00,8.999999761581420898e-01,1.317867059924537898e-08,1.155494278037849654e-08,4.093199253082275391e+00,-1.743473671376705170e-02,-2.097551524639129639e-02
1.879000000000000000e+03,6.900000095367431641e+00,8.999999761581420898e-01,1.337383714883344510e-08,1.187942277880438269e-08,4.093298435211181641e+00,-1.734890230000019073e-02,-2.078296989202499390e-02
1.880000000000000000e+03,7.000000000000000000e+00,8.999999761581420898e-01,1.356900725113519002e-08,1.220867495987931761e-08,4.093389034271240234e+00,-1.726911216974258423e-02,-2.060730941593647003e-02
1.881000000000000000e+03,7.099999904632568359e+00,8.999999761581420898e-01,1.376418001797219404e-08,1.254269932360330131e-08,4.093472003936767578e+00,-1.719508320093154907e-02,-2.044730260968208313e-02
1.882000000000000000e+03,7.199999809265136719e+00,8.999999761581420898e-01,1.395935456116603746e-08,1.288149586997633378e-08,4.093546867370605469e+00,-1.712653785943984985e-02,-2.030185610055923462e-02
1.883000000000000000e+03,7.300000190734863281e+00,8.999999761581420898e-01,1.415453354525197938e-08,1.322506459899841502e-08,4.093615055084228516e+00,-1.706318557262420654e-02,-2.017001062631607056e-02
1.884000000000000000e+03,7.400000095367431641e+00,8.999999761581420898e-01,1.434971341751634100e-08,1.357340284613428594e-08,4.093677043914794922e+00,-1.700475066900253296e-02,-2.005049958825111389e-02
1.885000000000000000e+03,7.500000000000000000e+00,8.999999761581420898e-01,1.454489506613754202e-08,1.392650972320552683e-08,4.093732833862304688e+00,-1.695095188915729523e-02,-1.994264870882034302e-02
1.886000000000000000e+03,7.599999904632568359e+00,8.999999761581420898e-01,1.474007849111558244e-08,1.428438611839055739e-08,4.093782901763916016e+00,-1.690151728689670563e-02,-1.984547637403011322e-02
1.887000000000000000e+03,7.699999809265136719e+00,8.999999761581420898e-01,1.493526369245046226e-08,1.464703114351095792e-08,4.093828201293945312e+00,-1.685618050396442413e-02,-1.975813880562782288e-02
1.888000000000000000e+03,7.800000190734863281e+00,8.999999761581420898e-01,1.513044978196376178e-08,1.501444479856672842e-08,4.093868732452392578e+00,-1.681468077003955841e-02,-1.967992633581161499e-02
1.889000000000000000e+03,7.900000095367431641e+00,8.999999761581420898e-01,1.532563764783390070e-08,1.538662530720102950e-08,4.093904972076416016e+00,-1.677676849067211151e-02,-1.960982196033000946e-02
1.890000000000000000e+03,8.000000000000000000e+00,8.999999761581420898e-01,1.552082551370403962e-08,1.576357178123544145e-08,4.093937397003173828e+00,-1.674220524728298187e-02,-1.954739540815353394e-02
1.891000000000000000e+03,8.100000381469726562e+00,8.999999761581420898e-01,1.571601515593101794e-08,1.614528599702680367e-08,4.093966484069824219e+00,-1.671075634658336639e-02,-1.949199661612510681e-02
1.892000000000000000e+03,8.199999809265136719e+00,8.999999761581420898e-01,1.591120479815799627e-08,1.653176084914775856e-08,4.093991756439208984e+00,-1.668220385909080505e-02,-1.944264583289623260e-02
1.893000000000000000e+03,8.300000190734863281e+00,8.999999761581420898e-01,1.610639621674181399e-08,1.692300699573934253e-08,4.094014167785644531e+00,-1.665633358061313629e-02,-1.939941383898258209e-02
1.894000000000000000e+03,8.399999618530273438e+00,8.999999761581420898e-01,1.630158763532563171e-08,1.731901200230367976e-08,4.094034194946289062e+00,-1.663294807076454163e-02,-1.936104148626327515e-02
1.895000000000000000e+03,8.500000000000000000e+00,8.999999761581420898e-01,1.649678083026628883e-08,1.771978652698180667e-08,4.094051837921142578e+00,-1.661185733973979950e-02,-1.932776719331741333e-02
1.896000000000000000e+03,8.600000381469726562e+00,8.999999761581420898e-01,1.669197402520694595e-08,1.812532346434636565e-08,4.094066619873046875e+00,-1.659287884831428528e-02,-1.929859258234500885e-02
1.897000000000000000e+03,8.699999809265136719e+00,8.999999761581420898e-01,1.688716544379076367e-08,1.853562103804051731e-08,4.094079971313476562e+00,-1.657584495842456818e-02,-1.927309483289718628e-02
1.898000000000000000e+03,8.800000190734863281e+00,8.999999761581420898e-01,1.708236041508826020e-08,1.895068635349161923e-08,4.094091415405273438e+00,-1.656059734523296356e-02,-1.925143599510192871e-02
1.899000000000000000e+03,8.899999618530273438e+00,8.999999761581420898e-01,1.727755183367207792e-08,1.937050875255863502e-08,4.094100952148437500e+00,-1.654698513448238373e-02,-1.923253014683723450e-02
1.900000000000000000e+03,9.000000000000000000e+00,8.999999761581420898e-01,1.747274680496957444e-08,1.979509711702576169e-08,4.094109535217285156e+00,-1.653487049043178558e-02,-1.921678148210048676e-02
1.901000000000000000e+03,9.100000381469726562e+00,8.999999761581420898e-01,1.766794177626707096e-08,2.022444967053615983e-08,4.094116210937500000e+00,-1.652412116527557373e-02,-1.920334249734878540e-02
1.902000000000000000e+03,9.199999809265136719e+00,8.999999761581420898e-01,1.786313497120772809e-08,2.065855930766247184e-08,4.094121932983398438e+00,-1.651461608707904816e-02,-1.919193938374519348e-02
1.903000000000000000e+03,9.300000190734863281e+00,8.999999761581420898e-01,1.805832994250522461e-08,2.109743313383205532e-08,4.094127178192138672e+00,-1.650624163448810577e-02,-1.918287202715873718e-02
1.904000000000000000e+03,9.399999618530273438e+00,8.999999761581420898e-01,1.825352313744588173e-08,2.154106581997439207e-08,4.094130992889404297e+00,-1.649889349937438965e-02,-1.917517744004726410e-02
1.905000000000000000e+03,9.500000000000000000e+00,8.999999761581420898e-01,1.844871810874337825e-08,2.198946269516000029e-08,4.094133853912353516e+00,-1.649247296154499054e-02,-1.916938461363315582e-02
1.906000000000000000e+03,9.600000381469726562e+00,8.999999761581420898e-01,1.864391308004087477e-08,2.244262020667520119e-08,4.094136238098144531e+00,-1.648689061403274536e-02,-1.916475407779216766e-02
1.907000000000000000e+03,9.699999809265136719e+00,8.999999761581420898e-01,1.883910627498153190e-08,2.290053480180631595e-08,4.094138145446777344e+00,-1.648206263780593872e-02,-1.916111633181571960e-02
1.908000000000000000e+03,9.800000190734863281e+00,8.999999761581420898e-01,1.903430124627902842e-08,2.336321536233754159e-08,4.094139575958251953e+00,-1.647791266441345215e-02,-1.915886811912059784e-02
1.909000000000000000e+03,9.899999618530273438e+00,8.999999761581420898e-01,1.922949444121968554e-08,2.383064945377100230e-08,4.094140529632568359e+00,-1.647437177598476410e-02,-1.915713958442211151e-02
1.910000000000000000e+03,1.000000000000000000e+01,8.999999761581420898e-01,1.942468941251718206e-08,2.430284951060457388e-08,4.094141006469726562e+00,-1.647137291729450226e-02,-1.915653608739376068e-02
1.911000000000000000e+03,1.010000038146972656e+01,8.999999761581420898e-01,1.961988438381467859e-08,2.477981020376773813e-08,4.094141006469726562e+00,-1.646885834634304047e-02,-1.915640383958816528e-02
1.912000000000000000e+03,1.019999980926513672e+01,8.999999761581420898e-01,1.981507757875533571e-08,2.526152620418997685e-08,4.094140529632568359e+00,-1.646677590906620026e-02,-1.915662549436092377e-02
1.913000000000000000e+03,1.030000019073486328e+01,8.999999761581420898e-01,2.001027255005283223e-08,2.574800639365548705e-08,4.094140052795410156e+00,-1.646507345139980316e-02,-1.915769279003143311e-02
1.914000000000000000e+03,1.039999961853027344e+01,8.999999761581420898e-01,2.020546574499348935e-08,2.623924189038007171e-08,4.094139575958251953e+00,-1.646370813250541687e-02,-1.915875636041164398e-02
1.915000000000000000e+03,1.050000000000000000e+01,8.999999761581420898e-01,2.040066071629098587e-08,2.673524157614792784e-08,4.094138622283935547e+00,-1.646263711154460907e-02,-1.916051842272281647e-02
1.916000000000000000e+03,1.060000038146972656e+01,8.999999761581420898e-01,2.059585568758848240e-08,2.723600012188853725e-08,4.094138145446777344e+00,-1.646182499825954437e-02,-1.916234008967876434e-02
1.917000000000000000e+03,1.069999980926513672e+01,8.999999761581420898e-01,2.079104888252913952e-08,2.774151397488822113e-08,4.094136714935302734e+00,-1.646123826503753662e-02,-1.916416548192501068e-02
1.918000000000000000e+03,1.080000019073486328e+01,8.999999761581420898e-01,2.098624385382663604e-08,2.825179201693117648e-08,4.094135761260986328e+00,-1.646084897220134735e-02,-1.916652359068393707e-02
1.919000000000000000e+03,1.089999961853027344e+01,8.999999761581420898e-01,2.118143704876729316e-08,2.876682536623320630e-08,4.094134807586669922e+00,-1.646062545478343964e-02,-1.916860602796077728e-02
1.920000000000000000e+03,1.100000000000000000e+01,8.999999761581420898e-01,2.137663024370795029e-08,2.928662290457850759e-08,4.094133377075195312e+00,-1.646054722368717194e-02,-1.917114667594432831e-02
1.921000000000000000e+03,1.110000038146972656e+01,8.999999761581420898e-01,2.157182521500544681e-08,2.981117930289656215e-08,4.094132423400878906e+00,-1.646059192717075348e-02,-1.917353458702564240e-02
1.922000000000000000e+03,1.119999980926513672e+01,8.999999761581420898e-01,2.176701840994610393e-08,3.034049100847369118e-08,4.094130992889404297e+00,-1.646073907613754272e-02,-1.917574554681777954e-02
1.923000000000000000e+03,1.130000019073486328e+01,8.999999761581420898e-01,2.196221338124360045e-08,3.087456335038041288e-08,4.094129562377929688e+00,-1.646097190678119659e-02,-1.917833462357521057e-02
1.924000000000000000e+03,1.139999961853027344e+01,8.999999761581420898e-01,2.215740479982741817e-08,3.141339277590304846e-08,4.094128608703613281e+00,-1.646127738058567047e-02,-1.918051205575466156e-02
1.925000000000000000e+03,1.150000000000000000e+01,8.999999761581420898e-01,2.235259977112491470e-08,3.195698639046895551e-08,4.094127178192138672e+00,-1.646163687109947205e-02,-1.918303221464157104e-02
1.926000000000000000e+03,1.160000038146972656e+01,8.999999761581420898e-01,2.254779474242241122e-08,3.250534064136445522e-08,4.094126224517822266e+00,-1.646204292774200439e-02,-1.918530464172363281e-02
1.927000000000000000e+03,1.169999980926513672e+01,8.999999761581420898e-01,2.274298616100622894e-08,3.305844487044851121e-08,4.094125270843505859e+00,-1.646248437464237213e-02,-1.918732002377510071e-02
1.928000000000000000e+03,1.180000019073486328e+01,8.999999761581420898e-01,2.293818113230372546e-08,3.361631684128951747e-08,4.094123840332031250e+00,-1.646295003592967987e-02,-1.918964460492134094e-02
1.929000000000000000e+03,1.189999961853027344e+01,8.999999761581420898e-01,2.313337255088754318e-08,3.417894234303275880e-08,4.094122886657714844e+00,-1.646343432366847992e-02,-1.919150538742542267e-02
1.930000000000000000e+03,1.200000000000000000e+01,8.999999761581420898e-01,2.332856752218503971e-08,3.474633203381927160e-08,4.094121932983398438e+00,-1.646392978727817535e-02,-1.919366605579853058e-02
1.931000000000000000e+03,1.210000038146972656e+01,8.999999761581420898e-01,2.352376071712569683e-08,3.531847880822169827e-08,4.094120979309082031e+00,-1.646442897617816925e-02,-1.919554546475410461e-02
1.932000000000000000e+03,1.219999980926513672e+01,8.999999761581420898e-01,2.371895391206635395e-08,3.589538266624003882e-08,4.094120025634765625e+00,-1.646492816507816315e-02,-1.919714361429214478e-02
1.933000000000000000e+03,1.230000019073486328e+01,8.999999761581420898e-01,2.391414710700701107e-08,3.647704716058797203e-08,4.094119071960449219e+00,-1.646542362868785858e-02,-1.919903419911861420e-02
1.934000000000000000e+03,1.239999961853027344e+01,8.999999761581420898e-01,2.410933852559082879e-08,3.706346873855181911e-08,4.094118118286132812e+00,-1.646591164171695709e-02,-1.920044980943202972e-02
1.935000000000000000e+03,1.250000000000000000e+01,8.999999761581420898e-01,2.430453349688832532e-08,3.765465095284525887e-08,4.094117641448974609e+00,-1.646638847887516022e-02,-1.920215785503387451e-02
1.936000000000000000e+03,1.260000038146972656e+01,8.999999761581420898e-01,2.449972669182898244e-08,3.825059380346829130e-08,4.094116687774658203e+00,-1.646685227751731873e-02,-1.920358650386333466e-02
1.937000000000000000e+03,1.269999980926513672e+01,8.999999761581420898e-01,2.469491988676963956e-08,3.885129373770723760e-08,4.094116210937500000e+00,-1.646730117499828339e-02,-1.920473575592041016e-02
1.938000000000000000e+03,1.280000019073486328e+01,8.999999761581420898e-01,2.489011308171029668e-08,3.945675430827577657e-08,4.094115257263183594e+00,-1.646773330867290497e-02,-1.920618303120136261e-02
1.939000000000000000e+03,1.289999961853027344e+01,8.999999761581420898e-01,2.508530450029411440e-08,4.006696840974655061e-08,4.094114780426025391e+00,-1.646814867854118347e-02,-1.920716464519500732e-02
1.940000000000000000e+03,1.300000000000000000e+01,8.999999761581420898e-01,2.528049947159161093e-08,4.068195025297427492e-08,4.094114303588867188e+00,-1.646854542195796967e-02,-1.920845173299312592e-02
1.941000000000000000e+03,1.310000038146972656e+01,8.999999761581420898e-01,2.547569266653226805e-08,4.130168917981791310e-08,4.094113826751708984e+00,-1.646892353892326355e-02,-1.920947059988975525e-02
1.942000000000000000e+03,1.319999980926513672e+01,8.999999761581420898e-01,2.567088408511608577e-08,4.192617808485010755e-08,4.094113349914550781e+00,-1.646928116679191589e-02,-1.921022497117519379e-02
1.943000000000000000e+03,1.330000019073486328e+01,8.999999761581420898e-01,2.586607905641358229e-08,4.255543473163925228e-08,4.094112873077392578e+00,-1.646962203085422516e-02,-1.921129412949085236e-02
1.944000000000000000e+03,1.339999961853027344e+01,8.999999761581420898e-01,2.606127047499740002e-08,4.318944490933063207e-08,4.094112396240234375e+00,-1.646994426846504211e-02,-1.921191252768039703e-02
1.945000000000000000e+03,1.350000000000000000e+01,8.999999761581420898e-01,2.625646366993805714e-08,4.382822282877896214e-08,4.094111919403076172e+00,-1.647024787962436676e-02,-1.921285316348075867e-02
1.946000000000000000e+03,1.360000038146972656e+01,8.999999761581420898e-01,2.645165864123555366e-08,4.447175427912952728e-08,4.094111442565917969e+00,-1.647053472697734833e-02,-1.921354234218597412e-02
1.947000000000000000e+03,1.369999980926513672e+01,8.999999761581420898e-01,2.664685005981937138e-08,4.512004281309600628e-08,4.094111442565917969e+00,-1.647080481052398682e-02,-1.921398192644119263e-02
1.948000000000000000e+03,1.380000019073486328e+01,8.999999761581420898e-01,2.684204325476002850e-08,4.577309553610575676e-08,4.094110965728759766e+00,-1.647105813026428223e-02,-1.921475306153297424e-02
1.949000000000000000e+03,1.389999961853027344e+01,8.999999761581420898e-01,2.703723467334384623e-08,4.643089823730406351e-08,4.094110488891601562e+00,-1.647130027413368225e-02,-1.921508833765983582e-02
1.950000000000000000e+03,1.400000000000000000e+01,8.999999761581420898e-01,2.723242964464134275e-08,4.709346868025932054e-08,4.094110488891601562e+00,-1.647152751684188843e-02,-1.921576261520385742e-02
1.951000000000000000e+03,1.410000038146972656e+01,8.999999761581420898e-01,2.742762283958199987e-08,4.776079975954417023e-08,4.094110012054443359e+00,-1.647174358367919922e-02,-1.921619661152362823e-02
1.952000000000000000e+03,1.419999980926513672e+01,8.999999761581420898e-01,2.762281425816581759e-08,4.843288081701757619e-08,4.094110012054443359e+00,-1.647195219993591309e-02,-1.921639591455459595e-02
1.953000000000000000e+03,1.430000019073486328e+01,8.999999761581420898e-01,2.781800745310647471e-08,4.910972961624793243e-08,4.094109535217285156e+00,-1.647215150296688080e-02,-1.921693794429302216e-02
1.954000000000000000e+03,1.439999961853027344e+01,8.999999761581420898e-01,2.801320064804713184e-08,4.979132839366684493e-08,4.094109535217285156e+00,-1.647234708070755005e-02,-1.921705529093742371e-02
1.955000000000000000e+03,1.450000000000000000e+01,8.999999761581420898e-01,2.820839384298778896e-08,5.047769491284270771e-08,4.094109535217285156e+00,-1.647253893315792084e-02,-1.921751722693443298e-02
1.956000000000000000e+03,1.460000038146972656e+01,8.999999761581420898e-01,2.840358703792844608e-08,5.116881851563448436e-08,4.094109058380126953e+00,-1.647273264825344086e-02,-1.921774819493293762e-02
1.957000000000000000e+03,1.469999980926513672e+01,8.999999761581420898e-01,2.859877845651226380e-08,5.186469564932849607e-08,4.094109058380126953e+00,-1.647293008863925934e-02,-1.921774633228778839e-02
1.958000000000000000e+03,1.480000019073486328e+01,8.999999761581420898e-01,2.879397342780976032e-08,5.256534052477945806e-08,4.094109058380126953e+00,-1.647313497960567474e-02,-1.921809092164039612e-02
1.959000000000000000e+03,1.489999961853027344e+01,8.999999761581420898e-01,2.898916484639357805e-08,5.327073537841897632e-08,4.094108581542968750e+00,-1.647335290908813477e-02,-1.921800710260868073e-02
1.960000000000000000e+03,1.500000000000000000e+01,8.999999761581420898e-01,2.918435804133423517e-08,5.398089442110176606e-08,4.094108581542968750e+00,-1.647358760237693787e-02,-1.921826601028442383e-02
1.961000000000000000e+03,1.510000038146972656e+01,8.999999761581420898e-01,2.937955123627489229e-08,5.469581410011414846e-08,4.094108581542968750e+00,-1.647384464740753174e-02,-1.921828649938106537e-02
1.962000000000000000e+03,1.519999980926513672e+01,8.999999761581420898e-01,2.957474443121554941e-08,5.541548731002876593e-08,4.094108581542968750e+00,-1.647413149476051331e-02,-1.921806298196315765e-02
1.963000000000000000e+03,1.530000019073486328e+01,8.999999761581420898e-01,2.976993762615620653e-08,5.613992470898665488e-08,4.094108104705810547e+00,-1.647445559501647949e-02,-1.921816729009151459e-02
1.964000000000000000e+03,1.539999961853027344e+01,8.999999761581420898e-01,2.996512904474002426e-08,5.686911563884677889e-08,4.094108104705810547e+00,-1.647482439875602722e-02,-1.921782456338405609e-02
1.965000000000000000e+03,1.550000000000000000e+01,8.999999761581420898e-01,3.016032223968068138e-08,5.760307431046385318e-08,4.094108104705810547e+00,-1.647524908185005188e-02,-1.921779662370681763e-02
1.966000000000000000e+03,1.560000038146972656e+01,8.999999761581420898e-01,3.035551543462133850e-08,5.834179006569684134e-08,4.094108104705810547e+00,-1.647573895752429962e-02,-1.921749673783779144e-02
1.967000000000000000e+03,1.569999980926513672e+01,8.999999761581420898e-01,3.055070862956199562e-08,5.908525579911838577e-08,4.094108104705810547e+00,-1.647631078958511353e-02,-1.921691186726093292e-02
1.968000000000000000e+03,1.580000019073486328e+01,8.999999761581420898e-01,3.074590182450265274e-08,5.983348927429688047e-08,4.094108104705810547e+00,-1.647697389125823975e-02,-1.921660639345645905e-02
1.969000000000000000e+03,1.589999961853027344e+01,8.999999761581420898e-01,3.094109501944330987e-08,6.058647983309128904e-08,4.094108104705810547e+00,-1.647774875164031982e-02,-1.921579428017139435e-02
1.970000000000000000e+03,1.600000000000000000e+01,8.999999761581420898e-01,3.113628821438396699e-08,6.134423102821529028e-08,4.094108104705810547e+00,-1.647865399718284607e-02,-1.921522803604602814e-02
1.971000000000000000e+03,1.610000038146972656e+01,8.999999761581420898e-01,3.133148140932462411e-08,6.210674285966888419e-08,4.094108104705810547e+00,-1.647971011698246002e-02,-1.921430788934230804e-02
1.972000000000000000e+03,1.620000076293945312e+01,8.999999761581420898e-01,3.152667460426528123e-08,6.287400822202471318e-08,4.094108104705810547e+00,-1.648094132542610168e-02,-1.921319961547851562e-02
1.973000000000000000e+03,1.629999923706054688e+01,8.999999761581420898e-01,3.172186424649225955e-08,6.364602711528277723e-08,4.094108581542968750e+00,-1.648237742483615875e-02,-1.921149343252182007e-02
1.974000000000000000e+03,1.639999961853027344e+01,8.999999761581420898e-01,3.191705744143291668e-08,6.442281375029779156e-08,4.094109058380126953e+00,-1.648404821753501892e-02,-1.921030879020690918e-02
1.975000000000000000e+03,1.650000000000000000e+01,8.999999761581420898e-01,3.211225063637357380e-08,6.520436102164239855e-08,4.094109535217285156e+00,-1.648599095642566681e-02,-1.920845545828342438e-02
1.976000000000000000e+03,1.660000038146972656e+01,8.999999761581420898e-01,3.230744738402790972e-08,6.599066892931659822e-08,4.094110012054443359e+00,-1.648824289441108704e-02,-1.920627430081367493e-02
1.977000000000000000e+03,1.670000076293945312e+01,8.999999761581420898e-01,3.250264057896856684e-08,6.678173747332039056e-08,4.094110488891601562e+00,-1.649085246026515961e-02,-1.920372247695922852e-02
1.978000000000000000e+03,1.679999923706054688e+01,8.999999761581420898e-01,3.269783022119554516e-08,6.757754533737170277e-08,4.094111442565917969e+00,-1.649386994540691376e-02,-1.920036226511001587e-02
1.979000000000000000e+03,1.689999961853027344e+01,8.999999761581420898e-01,3.289302341613620229e-08,6.837812804860732285e-08,4.094112873077392578e+00,-1.649735122919082642e-02,-1.919728703796863556e-02
1.980000000000000000e+03,1.700000000000000000e+01,8.999999761581420898e-01,3.308822016379053821e-08,6.918347850159989321e-08,4.094114303588867188e+00,-1.650135964155197144e-02,-1.919328235089778900e-02
1.981000000000000000e+03,1.710000038146972656e+01,8.999999761581420898e-01,3.328341335873119533e-08,6.999357538006734103e-08,4.094116687774658203e+00,-1.650596968829631805e-02,-1.918866485357284546e-02
1.982000000000000000e+03,1.720000076293945312e+01,8.999999761581420898e-01,3.347860655367185245e-08,7.080844000029173912e-08,4.094119071960449219e+00,-1.651126146316528320e-02,-1.918335817754268646e-02
1.983000000000000000e+03,1.729999923706054688e+01,8.999999761581420898e-01,3.367379974861250957e-08,7.162804394056365709e-08,4.094121932983398438e+00,-1.651732251048088074e-02,-1.917690038681030273e-02
1.984000000000000000e+03,1.739999961853027344e+01,8.999999761581420898e-01,3.386899294355316670e-08,7.245242983344724053e-08,4.094125747680664062e+00,-1.652425155043601990e-02,-1.917036436498165131e-02
1.985000000000000000e+03,1.750000000000000000e+01,8.999999761581420898e-01,3.406418969120750262e-08,7.328156925723305903e-08,4.094130516052246094e+00,-1.653216034173965454e-02,-1.916251331567764282e-02
1.986000000000000000e+03,1.760000038146972656e+01,8.999999761581420898e-01,3.425938643886183854e-08,7.411546931734847021e-08,4.094135761260986328e+00,-1.654117181897163391e-02,-1.915365085005760193e-02
1.987000000000000000e+03,1.770000076293945312e+01,8.999999761581420898e-01,3.445458318651617446e-08,7.495413001379347406e-08,4.094142913818359375e+00,-1.655141636729240417e-02,-1.914370618760585785e-02
1.988000000000000000e+03,1.779999923706054688e+01,8.999999761581420898e-01,3.464977638145683159e-08,7.579753003028599778e-08,4.094151496887207031e+00,-1.656304113566875458e-02,-1.913223043084144592e-02
1.989000000000000000e+03,1.789999961853027344e+01,8.999999761581420898e-01,3.484497312911116751e-08,7.664570489396282937e-08,4.094161987304687500e+00,-1.657619886100292206e-02,-1.912034116685390472e-02
1.990000000000000000e+03,1.800000000000000000e+01,8.999999761581420898e-01,3.504016987676550343e-08,7.749864039396925364e-08,4.094174385070800781e+00,-1.659105159342288971e-02,-1.910688355565071106e-02
1.991000000000000000e+03,1.810000038146972656e+01,8.999999761581420898e-01,3.523537017713351815e-08,7.835633653030527057e-08,4.094189643859863281e+00,-1.660775952041149139e-02,-1.909229159355163574e-02
1.992000000000000000e+03,1.820000076293945312e+01,8.999999761581420898e-01,3.543057047750153288e-08,7.921879330297088018e-08,4.094208717346191406e+00,-1.662647351622581482e-02,-1.907669380307197571e-02
1.993000000000000000e+03,1.829999923706054688e+01,8.999999761581420898e-01,3.562577077786954760e-08,8.008598229025665205e-08,4.094231128692626953e+00,-1.664730720221996307e-02,-1.905995048582553864e-02
1.994000000000000000e+03,1.839999961853027344e+01,8.999999761581420898e-01,3.582097463095124112e-08,8.095795323015408940e-08,4.094258785247802734e+00,-1.667031086981296539e-02,-1.904360949993133545e-02
1.995000000000000000e+03,1.850000000000000000e+01,8.999999761581420898e-01,3.601617848403293465e-08,8.183468480638111942e-08,4.094291687011718750e+00,-1.669540628790855408e-02,-1.902713440358638763e-02
1.996000000000000000e+03,1.860000038146972656e+01,8.999999761581420898e-01,3.621138588982830697e-08,8.271616991351038450e-08,4.094331741333007812e+00,-1.672229543328285217e-02,-1.901181600987911224e-02
1.997000000000000000e+03,1.870000076293945312e+01,8.999999761581420898e-01,3.640659684833735810e-08,8.360241565696924226e-08,4.094379425048828125e+00,-1.675030030310153961e-02,-1.899894699454307556e-02
1.998000000000000000e+03,1.879999923706054688e+01,8.999999761581420898e-01,3.660180780684640922e-08,8.449339361504826229e-08,4.094435691833496094e+00,-1.677813194692134857e-02,-1.898992247879505157e-02
1.999000000000000000e+03,1.889999961853027344e+01,8.999999761581420898e-01,3.679702231806913915e-08,8.538915352573894779e-08,4.094501495361328125e+00,-1.680351234972476959e-02,-1.898826286196708679e-02
2.000000000000000000e+03,1.900000000000000000e+01,8.999999761581420898e-01,3.699224393471922667e-08,8.628965986190451076e-08,4.094577789306640625e+00,-1.682262122631072998e-02,-1.899580843746662140e-02
2.001000000000000000e+03,1.910000038146972656e+01,8.999999761581420898e-01,3.718746910408299300e-08,8.719491972897230880e-08,4.094664096832275391e+00,-1.682932674884796143e-02,-1.901645772159099579e-02
2.002000000000000000e+03,1.920000076293945312e+01,8.999999761581420898e-01,3.738270137887411693e-08,8.810493312694234191e-08,4.094758510589599609e+00,-1.681422814726829529e-02,-1.905383728444576263e-02
2.003000000000000000e+03,1.929999923706054688e+01,8.999999761581420898e-01,3.757793010095156205e-08,8.901968584495989489e-08,4.094858169555664062e+00,-1.676375418901443481e-02,-1.911031641066074371e-02
2.004000000000000000e+03,1.939999961853027344e+01,8.999999761581420898e-01,3.777316592845636478e-08,8.993919919930704054e-08,4.094956874847412109e+00,-1.665997505187988281e-02,-1.918710209429264069e-02
2.005000000000000000e+03,1.950000000000000000e+01,8.999999761581420898e-01,3.796840530867484631e-08,9.086345897912906366e-08,4.095047473907470703e+00,-1.648247800767421722e-02,-1.927773654460906982e-02
2.006000000000000000e+03,1.960000038146972656e+01,8.999999761581420898e-01,3.816364113617964904e-08,9.179247939528067946e-08,4.095120429992675781e+00,-1.621389947831630707e-02,-1.936909742653369904e-02
2.007000000000000000e+03,1.970000076293945312e+01,8.999999761581420898e-01,3.835887696368445177e-08,9.272624623690717272e-08,4.095167636871337891e+00,-1.584963127970695496e-02,-1.943841204047203064e-02
2.008000000000000000e+03,1.979999923706054688e+01,8.999999761581420898e-01,3.855410213304821809e-08,9.366475950400854344e-08,4.095186233520507812e+00,-1.540890801697969437e-02,-1.945637166500091553e-02
2.009000000000000000e+03,1.989999961853027344e+01,8.999999761581420898e-01,3.874932730241198442e-08,9.460806182914893725e-08,4.095180988311767578e+00,-1.494006533175706863e-02,-1.939772628247737885e-02
2.010000000000000000e+03,2.000000000000000000e+01,8.999999761581420898e-01,3.894454181363471434e-08,9.555613189604628133e-08,4.095166683197021484e+00,-1.451244764029979706e-02,-1.924904249608516693e-02
2.011000000000000000e+03,0.000000000000000000e+00,1.000000000000000000e+00,2.011804968874138774e-37,6.700272733928426109e-38,3.829314947128295898e+00,1.148794531822204590e+00,2.863236367702484131e-01
2.012000000000000000e+03,1.000000014901161194e-01,1.000000000000000000e+00,1.659369863737936157e-10,3.544959117918189406e-11,3.785481929779052734e+00,1.002683997154235840e+00,2.468478828668594360e-01
2.013000000000000000e+03,2.000000029802322388e-01,1.000000000000000000e+00,3.357581712659651885e-10,7.848049987657645943e-11,3.830445289611816406e+00,8.806691765785217285e-01,2.653984427452087402e-01
2.014000000000000000e+03,3.000000119209289551e-01,1.000000000000000000e+00,5.093799271271848284e-10,1.280482803123206281e-10,3.874301195144653320e+00,7.608153223991394043e-01,2.725422084331512451e-01
2.015000000000000000e+03,4.000000059604644775e-01,1.000000000000000000e+00,6.865706336789401121e-10,1.831036711141820206e-10,3.915248394012451172e+00,6.474770903587341309e-01,2.689042389392852783e-01
2.016000000000000000e+03,5.000000000000000000e-01,1.000000000000000000e+00,8.669726603294236611e-10,2.426819023515491835e-10,3.951642274856567383e+00,5.439981222152709961e-01,2.561169564723968506e-01
2.017000000000000000e+03,6.000000238418579102e-01,1.000000000000000000e+00,1.050144637915195744e-09,3.059697495366719977e-10,3.982307434082031250e+00,4.523192644119262695e-01,2.364262193441390991e-01
2.018000000000000000e+03,6.999999880790710449e-01,1.000000000000000000e+00,1.235610946892506945e-09,3.723397701271835558e-10,4.006700992584228516e+00,3.730236887931823730e-01,2.122345119714736938e-01
2.019000000000000000e+03,8.000000119209289551e-01,1.000000000000000000e+00,1.422906237280585628e-09,4.413538701175667711e-10,4.024897575378417969e+00,3.056595027446746826e-01,1.857325434684753418e-01
2.020000000000000000e+03,8.999999761581420898e-01,1.000000000000000000e+00,1.611606292861722523e-09,5.127439028917990527e-10,4.037445068359375000e+00,2.491441369056701660e-01,1.586898267269134521e-01
2.021000000000000000e+03,1.000000000000000000e+00,1.000000000000000000e+00,1.801346294350025801e-09,5.863810548234482667e-10,4.045172691345214844e+00,2.021120190620422363e-01,1.323933899402618408e-01
2.022000000000000000e+03,1.100000023841857910e+00,1.000000000000000000e+00,1.991825593350426971e-09,6.622426496072364444e-10,4.049010753631591797e+00,1.631546020507812500e-01,1.076865345239639282e-01
2.023000000000000000e+03,1.200000047683715820e+00,1.000000000000000000e+00,2.182805491912631624e-09,7.403813673256820493e-10,4.049864768981933594e+00,1.309568434953689575e-01,8.505390584468841553e-02
2.024000000000000000e+03,1.299999952316284180e+00,1.000000000000000000e+00,2.374102026081459371e-09,8.209004587200752212e-10,4.048540115356445312e+00,1.043591201305389404e-01,6.471581012010574341e-02
2.025000000000000000e+03,1.399999976158142090e+00,1.000000000000000000e+00,2.565578194335671469e-09,9.039343717986980664e-10,4.045709133148193359e+00,8.237349987030029297e-02,4.671149700880050659e-02
2.026000000000000000e+03,1.500000000000000000e+00,1.000000000000000000e+00,2.757133410469236878e-09,9.896342634263533000e-10,4.041909694671630859e+00,6.417618691921234131e-02,3.096508048474788666e-02
2.027000000000000000e+03,1.600000023841857910e+00,1.000000000000000000e+00,2.948696620208579589e-09,1.078158229361747544e-09,4.037555217742919922e+00,4.908890649676322937e-02,1.733311638236045837e-02
2.028000000000000000e+03,1.700000047683715820e+00,1.000000000000000000e+00,3.140219861919035793e-09,1.169664698430494809e-09,4.032953739166259766e+00,3.655742481350898743e-02,5.637666676193475723e-03
2.029000000000000000e+03,1.799999952316284180e+00,1.000000000000000000e+00,3.331671605266706138e-09,1.264307658566110604e-09,4.028328895568847656e+00,2.613055333495140076e-02,-4.312046337872743607e-03
2.030000000000000000e+03,1.899999976158142090e+00,1.000000000000000000e+00,3.523033642593986769e-09,1.362234214319357761e-09,4.023834228515625000e+00,1.744141057133674622e-02,-1.270622666925191879e-02
2.031000000000000000e+03,2.000000000000000000e+00,1.000000000000000000e+00,3.714296425982865912e-09,1.463583032546011964e-09,4.019573688507080078e+00,1.019158773124217987e-02,-1.972626522183418274e-02
2.032000000000000000e+03,2.099999904632568359e+00,1.000000000000000000e+00,3.905456402719664766e-09,1.568482899116929730e-09,4.015610218048095703e+00,4.137911833822727203e-03,-2.554065734148025513e-02
2.033000000000000000e+03,2.200000047683715820e+00,1.000000000000000000e+00,4.096516459384247355e-09,1.677054162207980426e-09,4.011979579925537109e+00,-9.183146758005023003e-04,-3.030309639871120453e-02
2.034000000000000000e+03,2.299999952316284180e+00,1.000000000000000000e+00,4.287480148690292481e-09,1.789406289809392092e-09,4.008695125579833984e+00,-5.139914341270923615e-03,-3.415169566869735718e-02
2.035000000000000000e+03,2.400000095367431641e+00,1.000000000000000000e+00,4.478354576065157744e-09,1.905640756305615469e-09,4.005757331848144531e+00,-8.660871535539627075e-03,-3.720997646450996399e-02
2.036000000000000000e+03,2.500000000000000000e+00,1.000000000000000000e+00,4.669146402846990895e-09,2.025849710207694443e-09,4.003154754638671875e+00,-1.159181538969278336e-02,-3.958709910511970520e-02
2.037000000000000000e+03,2.599999904632568359e+00,1.000000000000000000e+00,4.859864066730779086e-09,2.150116973353988215e-09,4.000870227813720703e+00,-1.402451656758785248e-02,-4.137966409325599670e-02
2.038000000000000000e+03,2.700000047683715820e+00,1.000000000000000000e+00,5.050516449500719318e-09,2.278519817267010694e-09,3.998883247375488281e+00,-1.603540591895580292e-02,-4.267248138785362244e-02
2.039000000000000000e+03,2.799999952316284180e+00,1.000000000000000000e+00,5.241110212494959342e-09,2.411127075774288642e-09,3.997169971466064453e+00,-1.768840663135051727e-02,-4.353979602456092834e-02
2.040000000000000000e+03,2.900000095367431641e+00,1.000000000000000000e+00,5.431654237497696158e-09,2.548002031588225691e-09,3.995706319808959961e+00,-1.903722621500492096e-02,-4.404687136411666870e-02
2.041000000000000000e+03,3.000000000000000000e+00,1.000000000000000000e+00,5.622154297668657819e-09,2.689201306083077725e-09,3.994468212127685547e+00,-2.012716606259346008e-02,-4.425038397312164307e-02
2.042000000000000000e+03,3.099999904632568359e+00,1.000000000000000000e+00,5.812617498435201924e-09,2.834776191562582426e-09,3.993432044982910156e+00,-2.099659666419029236e-02,-4.420006275177001953e-02
2.043000000000000000e+03,3.200000047683715820e+00,1.000000000000000000e+00,6.003050057046266375e-09,2.984773761482983900e-09,3.992575883865356445e+00,-2.167814783751964569e-02,-4.393910244107246399e-02
2.044000000000000000e+03,3.299999952316284180e+00,1.000000000000000000e+00,6.193456858483159522e-09,3.139235094096193279e-09,3.991878747940063477e+00,-2.219966053962707520e-02,-4.350493103265762329e-02
2.045000000000000000e+03,3.400000095367431641e+00,1.000000000000000000e+00,6.383842343637979866e-09,3.298197936985047818e-09,3.991321086883544922e+00,-2.258497662842273712e-02,-4.293032735586166382e-02
2.046000000000000000e+03,3.500000000000000000e+00,1.000000000000000000e+00,6.574210953402825908e-09,3.461695596840286271e-09,3.990885734558105469e+00,-2.285457402467727661e-02,-4.224336519837379456e-02
2.047000000000000000e+03,3.599999904632568359e+00,1.000000000000000000e+00,6.764566240491376448e-09,3.629758715817388293e-09,3.990556001663208008e+00,-2.302609011530876160e-02,-4.146860539913177490e-02
2.048000000000000000e+03,3.700000047683715820e+00,1.000000000000000000e+00,6.954911757617310286e-09,3.802414383358154737e-09,3.990317583084106445e+00,-2.311475016176700592e-02,-4.062710702419281006e-02
2.049000000000000000e+03,3.799999952316284180e+00,1.000000000000000000e+00,7.145249725226676674e-09,3.979685914146102732e-09,3.990157604217529297e+00,-2.313372679054737091e-02,-3.973683714866638184e-02
2.050000000000000000e+03,3.900000095367431641e+00,1.000000000000000000e+00,7.335582807854734710e-09,4.161595956730934631e-09,3.990063905715942383e+00,-2.309442870318889618e-02,-3.881348296999931335e-02
2.051000000000000000e+03,4.000000000000000000e+00,1.000000000000000000e+00,7.525912337769113947e-09,4.348161830591834587e-09,3.990026473999023438e+00,-2.300675399601459503e-02,-3.787008672952651978e-02
2.052000000000000000e+03,4.099999904632568359e+00,1.000000000000000000e+00,7.716240979505073483e-09,4.539401743386406451e-09,3.990035772323608398e+00,-2.287928760051727295e-02,-3.691799938678741455e-02
2.053000000000000000e+03,4.199999809265136719e+00,1.000000000000000000e+00,7.906569621241033019e-09,4.735330350058575277e-09,3.990084171295166016e+00,-2.271948382258415222e-02,-3.596663847565650940e-02
2.054000000000000000e+03,4.300000190734863281e+00,1.000000000000000000e+00,8.096900039333831955e-09,4.935961861463056266e-09,3.990164041519165039e+00,-2.253380976617336273e-02,-3.502400219440460205e-02
2.055000000000000000e+03,4.400000095367431641e+00,1.000000000000000000e+00,8.287231345605050592e-09,5.141305603473256269e-09,3.990269660949707031e+00,-2.232787199318408966e-02,-3.409639373421669006e-02
2.056000000000000000e+03,4.500000000000000000e+00,1.000000000000000000e+00,8.477566204589948029e-09,5.351373122408631389e-09,3.990395307540893555e+00,-2.210652083158493042e-02,-3.318945690989494324e-02
2.057000000000000000e+03,4.599999904632568359e+00,1.000000000000000000e+00,8.667903728110104566e-09,5.566172411874958925e-09,3.990536212921142578e+00,-2.187394350767135620e-02,-3.230744972825050354e-02
2.058000000000000000e+03,4.699999809265136719e+00,1.000000000000000000e+00,8.858245692522359604e-09,5.785712353656435880e-09,3.990688800811767578e+00,-2.163374982774257660e-02,-3.145382180809974670e-02
2.059000000000000000e+03,4.800000190734863281e+00,1.000000000000000000e+00,9.048592097826713143e-09,6.009999609091210004e-09,3.990849256515502930e+00,-2.138903550803661346e-02,-3.063131496310234070e-02
2.060000000000000000e+03,4.900000095367431641e+00,1.000000000000000000e+00,9.238942055844745482e-09,6.239038174982169949e-09,3.991014719009399414e+00,-2.114244177937507629e-02,-2.984165586531162262e-02
2.061000000000000000e+03,5.000000000000000000e+00,1.000000000000000000e+00,9.429297342933296022e-09,6.472834268578253614e-09,3.991182804107666016e+00,-2.089621685445308685e-02,-2.908650971949100494e-02
2.062000000000000000e+03,5.099999904632568359e+00,1.000000000000000000e+00,9.619656182735525363e-09,6.711390998503929950e-09,3.991351366043090820e+00,-2.065225318074226379e-02,-2.836668118834495544e-02
2.063000000000000000e+03,5.199999809265136719e+00,1.000000000000000000e+00,9.810020351608272904e-09,6.954712805651297458e-09,3.991518735885620117e+00,-2.041213773190975189e-02,-2.768263407051563263e-02
2.064000000000000000e+03,5.300000190734863281e+00,1.000000000000000000e+00,1.000038896137311895e-08,7.202803686823244789e-09,3.991683721542358398e+00,-2.017717622220516205e-02,-2.703455090522766113e-02
2.065000000000000000e+03,5.400000095367431641e+00,1.000000000000000000e+00,1.019076201203006349e-08,7.455662753841352242e-09,3.991844654083251953e+00,-1.994844339787960052e-02,-2.642195299267768860e-02
2.066000000000000000e+03,5.500000000000000000e+00,1.000000000000000000e+00,1.038113861540068683e-08,7.713294003508508467e-09,3.992001056671142578e+00,-1.972679607570171356e-02,-2.584463171660900116e-02
2.067000000000000000e+03,5.599999904632568359e+00,1.000000000000000000e+00,1.057151965966340867e-08,7.975699212181552866e-09,3.992151975631713867e+00,-1.951291039586067200e-02,-2.530181594192981720e-02
2.068000000000000000e+03,5.699999809265136719e+00,1.000000000000000000e+00,1.076190425663980932e-08,8.242877491682065738e-09,3.992296934127807617e+00,-1.930729486048221588e-02,-2.479263767600059509e-02
2.069000000000000000e+03,5.800000190734863281e+00,1.000000000000000000e+00,1.095229418268672816e-08,8.514833282902145584e-09,3.992435693740844727e+00,-1.911032013595104218e-02,-2.431617863476276398e-02
2.070000000000000000e+03,5.900000095367431641e+00,1.000000000000000000e+00,1.114268677326890611e-08,8.791563921306533302e-09,3.992567777633666992e+00,-1.892223395407199860e-02,-2.387105487287044525e-02
2.071000000000000000e+03,6.000000000000000000e+00,1.000000000000000000e+00,1.133308291656476285e-08,9.073069406895228894e-09,3.992693185806274414e+00,-1.874317787587642670e-02,-2.345632947981357574e-02
2.072000000000000000e+03,6.099999904632568359e+00,1.000000000000000000e+00,1.152348172439587870e-08,9.359352404203491460e-09,3.992811679840087891e+00,-1.857320033013820648e-02,-2.307065203785896301e-02
2.073000000000000000e+03,6.199999809265136719e+00,1.000000000000000000e+00,1.171388408494067335e-08,9.650411136874481599e-09,3.992923498153686523e+00,-1.841227337718009949e-02,-2.271271497011184692e-02
2.074000000000000000e+03,6.300000190734863281e+00,1.000000000000000000e+00,1.190428911002072709e-08,9.946248269443458412e-09,3.993028640747070312e+00,-1.826030015945434570e-02,-2.238127030432224274e-02
2.075000000000000000e+03,6.400000095367431641e+00,1.000000000000000000e+00,1.209469679963603994e-08,1.024685936101832340e-08,3.993127107620239258e+00,-1.811713352799415588e-02,-2.207470871508121490e-02
2.076000000000000000e+03,6.500000000000000000e+00,1.000000000000000000e+00,1.228510715378661189e-08,1.055224529977749626e-08,3.993219375610351562e+00,-1.798257604241371155e-02,-2.179195545613765717e-02
2.077000000000000000e+03,6.599999904632568359e+00,1.000000000000000000e+00,1.247551928429402324e-08,1.086240697389939669e-08,3.993305206298828125e+00,-1.785639300942420959e-02,-2.153159677982330322e-02
2.078000000000000000e+03,6.699999809265136719e+00,1.000000000000000000e+00,1.266593407933669369e-08,1.117734260702718530e-08,3.993385076522827148e+00,-1.773831993341445923e-02,-2.129232324659824371e-02
2.079000000000000000e+03,6.800000190734863281e+00,1.000000000000000000e+00,1.285635153891462323e-08,1.149705397551770147e-08,3.993459224700927734e+00,-1.762806810438632965e-02,-2.107294276356697083e-02
2.080000000000000000e+03,6.900000095367431641e+00,1.000000000000000000e+00,1.304676899849255278e-08,1.182153752665726643e-08,3.993527889251708984e+00,-1.752533204853534698e-02,-2.087194100022315979e-02
2.081000000000000000e+03,7.000000000000000000e+00,1.000000000000000000e+00,1.323718912260574143e-08,1.215079326044588015e-08,3.993591308593750000e+00,-1.742979325354099274e-02,-2.068838290870189667e-02
2.082000000000000000e+03,7.099999904632568359e+00,1.000000000000000000e+00,1.342761013489734978e-08,1.248482206506196235e-08,3.993649721145629883e+00,-1.734112016856670380e-02,-2.052101865410804749e-02
2.083000000000000000e+03,7.199999809265136719e+00,1.000000000000000000e+00,1.361803292354579753e-08,1.282362127597025392e-08,3.993703365325927734e+00,-1.725898310542106628e-02,-2.036873437464237213e-02
2.084000000000000000e+03,7.300000190734863281e+00,1.000000000000000000e+00,1.380845837672950438e-08,1.316719266952759426e-08,3.993752717971801758e+00,-1.718304492533206940e-02,-2.023054473102092743e-02
2.085000000000000000e+03,7.400000095367431641e+00,1.000000000000000000e+00,1.399888294173479153e-08,1.351553358119872428e-08,3.993798017501831055e+00,-1.711297594010829926e-02,-2.010516636073589325e-02
2.086000000000000000e+03,7.500000000000000000e+00,1.000000000000000000e+00,1.418930928309691808e-08,1.386864312280522427e-08,3.993839263916015625e+00,-1.704844273626804352e-02,-1.999189518392086029e-02
2.087000000000000000e+03,7.599999904632568359e+00,1.000000000000000000e+00,1.437973651263746433e-08,1.422652129434709423e-08,3.993876934051513672e+00,-1.698912680149078369e-02,-1.988973096013069153e-02
2.088000000000000000e+03,7.699999809265136719e+00,1.000000000000000000e+00,1.457016463035643028e-08,1.458916809582433416e-08,3.993911027908325195e+00,-1.693470776081085205e-02,-1.979780010879039764e-02
2.089000000000000000e+03,7.800000190734863281e+00,1.000000000000000000e+00,1.476059452443223563e-08,1.495658530359378346e-08,3.993942260742187500e+00,-1.688487827777862549e-02,-1.971537433564662933e-02
2.090000000000000000e+03,7.900000095367431641e+00,1.000000000000000000e+00,1.495102353032962128e-08,1.532876581222808454e-08,3.993970394134521484e+00,-1.683934405446052551e-02,-1.964141242206096649e-02
2.091000000000000000e+03,8.000000000000000000e+00,1.000000000000000000e+00,1.514145431258384633e-08,1.570571406261933589e-08,3.993995904922485352e+00,-1.679781451821327209e-02,-1.957545988261699677e-02
2.092000000000000000e+03,8.100000381469726562e+00,1.000000000000000000e+00,1.533188509483807138e-08,1.608743005476753751e-08,3.994018793106079102e+00,-1.676001772284507751e-02,-1.951684802770614624e-02
2.093000000000000000e+03,8.199999809265136719e+00,1.000000000000000000e+00,1.552231587709229643e-08,1.647390668324533181e-08,3.994039535522460938e+00,-1.672568731009960175e-02,-1.946457289159297943e-02
2.094000000000000000e+03,8.300000190734863281e+00,1.000000000000000000e+00,1.571274843570336088e-08,1.686515460619375517e-08,3.994057893753051758e+00,-1.669457368552684784e-02,-1.941868662834167480e-02
2.095000000000000000e+03,8.399999618530273438e+00,1.000000000000000000e+00,1.590317921795758593e-08,1.726116138911493181e-08,3.994074583053588867e+00,-1.666643656790256500e-02,-1.937790960073471069e-02
2.096000000000000000e+03,8.500000000000000000e+00,1.000000000000000000e+00,1.609361177656865038e-08,1.766193591379305872e-08,3.994089365005493164e+00,-1.664104871451854706e-02,-1.934246346354484558e-02
2.097000000000000000e+03,8.600000381469726562e+00,1.000000000000000000e+00,1.628404611153655424e-08,1.806747462751445710e-08,3.994102478027343750e+00,-1.661819778382778168e-02,-1.931132748723030090e-02
2.098000000000000000e+03,8.699999809265136719e+00,1.000000000000000000e+00,1.647447689379077929e-08,1.847777220120860875e-08,3.994114160537719727e+00,-1.659767888486385345e-02,-1.928406767547130585e-02
2.099000000000000000e+03,8.800000190734863281e+00,1.000000000000000000e+00,1.666491122875868314e-08,1.889283751665971067e-08,3.994124412536621094e+00,-1.657930389046669006e-02,-1.926082745194435120e-02
2.100000000000000000e+03,8.899999618530273438e+00,1.000000000000000000e+00,1.685534378736974759e-08,1.931266169208356587e-08,3.994133472442626953e+00,-1.656289398670196533e-02,-1.924050785601139069e-02
2.101000000000000000e+03,9.000000000000000000e+00,1.000000000000000000e+00,1.704577812233765144e-08,1.973725005655069253e-08,3.994141578674316406e+00,-1.654828153550624847e-02,-1.922349631786346436e-02
2.102000000000000000e+03,9.100000381469726562e+00,1.000000000000000000e+00,1.723621245730555529e-08,2.016660261006109067e-08,3.994148492813110352e+00,-1.653530821204185486e-02,-1.920893602073192596e-02
2.103000000000000000e+03,9.199999809265136719e+00,1.000000000000000000e+00,1.742664501591661974e-08,2.060071224718740268e-08,3.994154453277587891e+00,-1.652383059263229370e-02,-1.919653825461864471e-02
2.104000000000000000e+03,9.300000190734863281e+00,1.000000000000000000e+00,1.761707935088452359e-08,2.103958784971382556e-08,3.994159698486328125e+00,-1.651371270418167114e-02,-1.918658986687660217e-02
2.105000000000000000e+03,9.399999618530273438e+00,1.000000000000000000e+00,1.780751368585242744e-08,2.148322053585616231e-08,3.994163990020751953e+00,-1.650482788681983948e-02,-1.917812228202819824e-02
2.106000000000000000e+03,9.500000000000000000e+00,1.000000000000000000e+00,1.799794802082033129e-08,2.193161741104177054e-08,3.994167804718017578e+00,-1.649706065654754639e-02,-1.917164959013462067e-02
2.107000000000000000e+03,9.600000381469726562e+00,1.000000000000000000e+00,1.818838235578823515e-08,2.238477492255697143e-08,3.994171142578125000e+00,-1.649030111730098724e-02,-1.916642673313617706e-02
2.108000000000000000e+03,9.699999809265136719e+00,1.000000000000000000e+00,1.837881669075613900e-08,2.284269129404492560e-08,3.994173765182495117e+00,-1.648445054888725281e-02,-1.916227489709854126e-02
2.109000000000000000e+03,9.800000190734863281e+00,1.000000000000000000e+00,1.856925102572404285e-08,2.330537007821931184e-08,3.994175910949707031e+00,-1.647941581904888153e-02,-1.915958151221275330e-02
2.110000000000000000e+03,9.899999618530273438e+00,1.000000000000000000e+00,1.875968358433510730e-08,2.377280594600961194e-08,3.994177818298339844e+00,-1.647511497139930725e-02,-1.915747113525867462e-02
2.111000000000000000e+03,1.000000000000000000e+01,1.000000000000000000e+00,1.895011969565985055e-08,2.424500600284318352e-08,3.994179248809814453e+00,-1.647146791219711304e-02,-1.915654353797435760e-02
2.112000000000000000e+03,1.010000038146972656e+01,1.000000000000000000e+00,1.914055403062775440e-08,2.472196669600634777e-08,3.994180440902709961e+00,-1.646840572357177734e-02,-1.915613748133182526e-02
2.113000000000000000e+03,1.019999980926513672e+01,1.000000000000000000e+00,1.933098836559565825e-08,2.520368269642858650e-08,3.994181156158447266e+00,-1.646586321294307709e-02,-1.915612816810607910e-02
2.114000000000000000e+03,1.030000019073486328e+01,1.000000000000000000e+00,1.952142270056356210e-08,2.569016288589409669e-08,3.994181871414184570e+00,-1.646378077566623688e-02,-1.915700547397136688e-02
2.115000000000000000e+03,1.039999961853027344e+01,1.000000000000000000e+00,1.971185525917462655e-08,2.618139838261868135e-08,3.994182109832763672e+00,-1.646210439503192902e-02,-1.915791630744934082e-02
2.116000000000000000e+03,1.050000000000000000e+01,1.000000000000000000e+00,1.990229137049936980e-08,2.667739806838653749e-08,3.994182348251342773e+00,-1.646078377962112427e-02,-1.915955543518066406e-02
2.117000000000000000e+03,1.060000038146972656e+01,1.000000000000000000e+00,2.009272570546727366e-08,2.717815661412714690e-08,3.994182586669921875e+00,-1.645977795124053955e-02,-1.916127838194370270e-02
2.118000000000000000e+03,1.069999980926513672e+01,1.000000000000000000e+00,2.028316004043517751e-08,2.768367046712683077e-08,3.994182348251342773e+00,-1.645904406905174255e-02,-1.916303113102912903e-02
2.119000000000000000e+03,1.080000019073486328e+01,1.000000000000000000e+00,2.047359437540308136e-08,2.819394850916978612e-08,3.994182109832763672e+00,-1.645854674279689789e-02,-1.916533894836902618e-02
2.120000000000000000e+03,1.089999961853027344e+01,1.000000000000000000e+00,2.066402693401414581e-08,2.870898185847181594e-08,3.994181871414184570e+00,-1.645825430750846863e-02,-1.916738785803318024e-02
2.121000000000000000e+03,1.100000000000000000e+01,1.000000000000000000e+00,2.085446304533888906e-08,2.922877939681711723e-08,3.994181632995605469e+00,-1.645813696086406708e-02,-1.916990987956523895e-02
2.122000000000000000e+03,1.110000038146972656e+01,1.000000000000000000e+00,2.104489738030679291e-08,2.975333579513517179e-08,3.994181156158447266e+00,-1.645816862583160400e-02,-1.917229220271110535e-02
2.123000000000000000e+03,1.119999980926513672e+01,1.000000000000000000e+00,2.123532993891785736e-08,3.028264572435546143e-08,3.994180679321289062e+00,-1.645832508802413940e-02,-1.917451061308383942e-02
2.124000000000000000e+03,1.130000019073486328e+01,1.000000000000000000e+00,2.142576605024260061e-08,3.081672161897586193e-08,3.994180202484130859e+00,-1.645858585834503174e-02,-1.917711459100246429e-02
2.125000000000000000e+03,1.139999961853027344e+01,1.000000000000000000e+00,2.161619860885366506e-08,3.135555104449849750e-08,3.994179725646972656e+00,-1.645893417298793793e-02,-1.917931437492370605e-02
2.126000000000000000e+03,1.150000000000000000e+01,1.000000000000000000e+00,2.180663294382156892e-08,3.189914465906440455e-08,3.994179248809814453e+00,-1.645935140550136566e-02,-1.918186433613300323e-02
2.127000000000000000e+03,1.160000038146972656e+01,1.000000000000000000e+00,2.199706905514631217e-08,3.244749535724622547e-08,3.994178533554077148e+00,-1.645982451736927032e-02,-1.918417215347290039e-02
2.128000000000000000e+03,1.169999980926513672e+01,1.000000000000000000e+00,2.218750161375737662e-08,3.300060313904396025e-08,3.994178056716918945e+00,-1.646034047007560730e-02,-1.918622665107250214e-02
2.129000000000000000e+03,1.180000019073486328e+01,1.000000000000000000e+00,2.237793594872528047e-08,3.355847510988496651e-08,3.994177579879760742e+00,-1.646088995039463043e-02,-1.918859407305717468e-02
2.130000000000000000e+03,1.189999961853027344e+01,1.000000000000000000e+00,2.256836850733634492e-08,3.412109705891452904e-08,3.994176864624023438e+00,-1.646145991981029510e-02,-1.919049955904483795e-02
2.131000000000000000e+03,1.200000000000000000e+01,1.000000000000000000e+00,2.275880284230424877e-08,3.468848674970104184e-08,3.994176387786865234e+00,-1.646204479038715363e-02,-1.919270493090152740e-02
2.132000000000000000e+03,1.210000038146972656e+01,1.000000000000000000e+00,2.294923895362899202e-08,3.526063707681714732e-08,3.994175910949707031e+00,-1.646263524889945984e-02,-1.919463276863098145e-02
2.133000000000000000e+03,1.219999980926513672e+01,1.000000000000000000e+00,2.313967151224005647e-08,3.583753738212180906e-08,3.994175434112548828e+00,-1.646322757005691528e-02,-1.919627748429775238e-02
2.134000000000000000e+03,1.230000019073486328e+01,1.000000000000000000e+00,2.333010584720796032e-08,3.641920542918342107e-08,3.994174957275390625e+00,-1.646381430327892303e-02,-1.919821463525295258e-02
2.135000000000000000e+03,1.239999961853027344e+01,1.000000000000000000e+00,2.352053840581902477e-08,3.700562345443358936e-08,3.994174480438232422e+00,-1.646439358592033386e-02,-1.919967681169509888e-02
2.136000000000000000e+03,1.250000000000000000e+01,1.000000000000000000e+00,2.371097451714376803e-08,3.759680922144070792e-08,3.994174003601074219e+00,-1.646496169269084930e-02,-1.920143142342567444e-02
2.137000000000000000e+03,1.260000038146972656e+01,1.000000000000000000e+00,2.390140885211167188e-08,3.819275207206374034e-08,3.994173526763916016e+00,-1.646551303565502167e-02,-1.920290291309356689e-02
2.138000000000000000e+03,1.269999980926513672e+01,1.000000000000000000e+00,2.409184141072273633e-08,3.879344845358900784e-08,3.994173049926757812e+00,-1.646604761481285095e-02,-1.920409500598907471e-02
2.139000000000000000e+03,1.280000019073486328e+01,1.000000000000000000e+00,2.428227574569064018e-08,3.939890902415754681e-08,3.994172573089599609e+00,-1.646656170487403870e-02,-1.920558512210845947e-02
2.140000000000000000e+03,1.289999961853027344e+01,1.000000000000000000e+00,2.447270830430170463e-08,4.000912312562832085e-08,3.994172334671020508e+00,-1.646705716848373413e-02,-1.920660585165023804e-02
2.141000000000000000e+03,1.300000000000000000e+01,1.000000000000000000e+00,2.466314263926960848e-08,4.062410496885604516e-08,3.994171857833862305e+00,-1.646753028035163879e-02,-1.920793205499649048e-02
2.142000000000000000e+03,1.310000038146972656e+01,1.000000000000000000e+00,2.485357875059435173e-08,4.124384389569968334e-08,3.994171619415283203e+00,-1.646798104047775269e-02,-1.920898631215095520e-02
2.143000000000000000e+03,1.319999980926513672e+01,1.000000000000000000e+00,2.504401130920541618e-08,4.186833635344555660e-08,3.994171380996704102e+00,-1.646840944886207581e-02,-1.920977607369422913e-02
2.144000000000000000e+03,1.330000019073486328e+01,1.000000000000000000e+00,2.523444564417332003e-08,4.249759300023470132e-08,3.994170904159545898e+00,-1.646881736814975739e-02,-1.921087689697742462e-02
2.145000000000000000e+03,1.339999961853027344e+01,1.000000000000000000e+00,2.542487820278438448e-08,4.313160317792608112e-08,3.994170665740966797e+00,-1.646920107305049896e-02,-1.921152696013450623e-02
2.146000000000000000e+03,1.350000000000000000e+01,1.000000000000000000e+00,2.561531253775228834e-08,4.377037754466073238e-08,3.994170427322387695e+00,-1.646956615149974823e-02,-1.921249553561210632e-02
2.147000000000000000e+03,1.360000038146972656e+01,1.000000000000000000e+00,2.580574687272019219e-08,4.441391254772497632e-08,3.994170188903808594e+00,-1.646990887820720673e-02,-1.921321079134941101e-02
2.148000000000000000e+03,1.369999980926513672e+01,1.000000000000000000e+00,2.599617943133125664e-08,4.506219752897777653e-08,3.994169950485229492e+00,-1.647023297846317291e-02,-1.921367458999156952e-02
2.149000000000000000e+03,1.380000019073486328e+01,1.000000000000000000e+00,2.618661554265599989e-08,4.571525025198752701e-08,3.994169712066650391e+00,-1.647053845226764679e-02,-1.921446993947029114e-02
2.150000000000000000e+03,1.389999961853027344e+01,1.000000000000000000e+00,2.637704810126706434e-08,4.637305650589951256e-08,3.994169473648071289e+00,-1.647082716226577759e-02,-1.921482756733894348e-02
2.151000000000000000e+03,1.400000000000000000e+01,1.000000000000000000e+00,2.656748243623496819e-08,4.703562694885476958e-08,3.994169235229492188e+00,-1.647110097110271454e-02,-1.921551860868930817e-02
2.152000000000000000e+03,1.410000038146972656e+01,1.000000000000000000e+00,2.675791677120287204e-08,4.770295447542594047e-08,3.994169235229492188e+00,-1.647136174142360687e-02,-1.921597123146057129e-02
2.153000000000000000e+03,1.419999980926513672e+01,1.000000000000000000e+00,2.694834932981393649e-08,4.837503553289934644e-08,3.994168996810913086e+00,-1.647161133587360382e-02,-1.921618729829788208e-02
2.154000000000000000e+03,1.430000019073486328e+01,1.000000000000000000e+00,2.713878366478184034e-08,4.905188433212970267e-08,3.994168758392333984e+00,-1.647185161709785461e-02,-1.921674422919750214e-02
2.155000000000000000e+03,1.439999961853027344e+01,1.000000000000000000e+00,2.732921622339290479e-08,4.973348310954861518e-08,3.994168758392333984e+00,-1.647208631038665771e-02,-1.921687461435794830e-02
2.156000000000000000e+03,1.450000000000000000e+01,1.000000000000000000e+00,2.751965055836080865e-08,5.041984962872447795e-08,3.994168519973754883e+00,-1.647231727838516235e-02,-1.921734958887100220e-02
2.157000000000000000e+03,1.460000038146972656e+01,1.000000000000000000e+00,2.771008666968555190e-08,5.111097678422993340e-08,3.994168281555175781e+00,-1.647255010902881622e-02,-1.921758987009525299e-02
2.158000000000000000e+03,1.469999980926513672e+01,1.000000000000000000e+00,2.790051922829661635e-08,5.180685036521026632e-08,3.994168281555175781e+00,-1.647278852760791779e-02,-1.921759918332099915e-02
2.159000000000000000e+03,1.480000019073486328e+01,1.000000000000000000e+00,2.809095356326452020e-08,5.250749524066122831e-08,3.994168043136596680e+00,-1.647303439676761627e-02,-1.921795308589935303e-02
2.160000000000000000e+03,1.489999961853027344e+01,1.000000000000000000e+00,2.828138612187558465e-08,5.321289009430074657e-08,3.994168043136596680e+00,-1.647329516708850861e-02,-1.921788044273853302e-02
2.161000000000000000e+03,1.500000000000000000e+01,1.000000000000000000e+00,2.847182045684348850e-08,5.392305268969721510e-08,3.994168043136596680e+00,-1.647357642650604248e-02,-1.921814680099487305e-02
2.162000000000000000e+03,1.510000038146972656e+01,1.000000000000000000e+00,2.866225479181139235e-08,5.463797236870959750e-08,3.994167804718017578e+00,-1.647388376295566559e-02,-1.921817660331726074e-02
2.163000000000000000e+03,1.519999980926513672e+01,1.000000000000000000e+00,2.885268735042245680e-08,5.535764202591053618e-08,3.994167804718017578e+00,-1.647422648966312408e-02,-1.921796239912509918e-02
2.164000000000000000e+03,1.530000019073486328e+01,1.000000000000000000e+00,2.904312168539036065e-08,5.608208297758210392e-08,3.994167804718017578e+00,-1.647461205720901489e-02,-1.921807974576950073e-02
2.165000000000000000e+03,1.539999961853027344e+01,1.000000000000000000e+00,2.923355424400142510e-08,5.681127390744222794e-08,3.994167804718017578e+00,-1.647505164146423340e-02,-1.921775005757808685e-02
2.166000000000000000e+03,1.550000000000000000e+01,1.000000000000000000e+00,2.942398857896932896e-08,5.754522902634562342e-08,3.994167804718017578e+00,-1.647555455565452576e-02,-1.921773701906204224e-02
2.167000000000000000e+03,1.560000038146972656e+01,1.000000000000000000e+00,2.961442469029407221e-08,5.828394478157861158e-08,3.994167804718017578e+00,-1.647613570094108582e-02,-1.921745575964450836e-02
2.168000000000000000e+03,1.569999980926513672e+01,1.000000000000000000e+00,2.980485547254829726e-08,5.902741406771383481e-08,3.994167804718017578e+00,-1.647680997848510742e-02,-1.921689510345458984e-02
2.169000000000000000e+03,1.580000019073486328e+01,1.000000000000000000e+00,2.999529158387304051e-08,5.977564399017865071e-08,3.994167804718017578e+00,-1.647759415209293365e-02,-1.921661943197250366e-02
2.170000000000000000e+03,1.589999961853027344e+01,1.000000000000000000e+00,3.018572414248410496e-08,6.052863454897305928e-08,3.994168043136596680e+00,-1.647850684821605682e-02,-1.921584457159042358e-02
2.171000000000000000e+03,1.600000000000000000e+01,1.000000000000000000e+00,3.037616025380884821e-08,6.128638574409706052e-08,3.994168281555175781e+00,-1.647957041859626770e-02,-1.921532489359378815e-02
2.172000000000000000e+03,1.610000038146972656e+01,1.000000000000000000e+00,3.056659281241991266e-08,6.204889757555065444e-08,3.994168519973754883e+00,-1.648080907762050629e-02,-1.921446248888969421e-02
2.173000000000000000e+03,1.620000076293945312e+01,1.000000000000000000e+00,3.075702892374465591e-08,6.281616293790648342e-08,3.994168996810913086e+00,-1.648225262761116028e-02,-1.921342872083187103e-02
2.174000000000000000e+03,1.629999923706054688e+01,1.000000000000000000e+00,3.094745792964204156e-08,6.358818183116454748e-08,3.994169473648071289e+00,-1.648393087089061737e-02,-1.921181380748748779e-02
2.175000000000000000e+03,1.639999961853027344e+01,1.000000000000000000e+00,3.113789404096678481e-08,6.436496846617956180e-08,3.994170188903808594e+00,-1.648587919771671295e-02,-1.921074092388153076e-02
2.176000000000000000e+03,1.650000000000000000e+01,1.000000000000000000e+00,3.132833015229152807e-08,6.514651573752416880e-08,3.994171142578125000e+00,-1.648814044892787933e-02,-1.920902542769908905e-02
2.177000000000000000e+03,1.660000038146972656e+01,1.000000000000000000e+00,3.151876271090259252e-08,6.593282364519836847e-08,3.994172096252441406e+00,-1.649075746536254883e-02,-1.920701749622821808e-02
2.178000000000000000e+03,1.670000076293945312e+01,1.000000000000000000e+00,3.170919882222733577e-08,6.672389218920216081e-08,3.994173526763916016e+00,-1.649378240108489990e-02,-1.920467615127563477e-02
2.179000000000000000e+03,1.679999923706054688e+01,1.000000000000000000e+00,3.189963138083840022e-08,6.751970005325347302e-08,3.994175195693969727e+00,-1.649726927280426025e-02,-1.920157484710216522e-02
2.180000000000000000e+03,1.689999961853027344e+01,1.000000000000000000e+00,3.209006749216314347e-08,6.832028276448909310e-08,3.994177341461181641e+00,-1.650128327310085297e-02,-1.919881626963615417e-02
2.181000000000000000e+03,1.700000000000000000e+01,1.000000000000000000e+00,3.228050005077420792e-08,6.912562611205430585e-08,3.994179725646972656e+00,-1.650589145720005035e-02,-1.919519901275634766e-02
2.182000000000000000e+03,1.710000038146972656e+01,1.000000000000000000e+00,3.247093616209895117e-08,6.993573009594911127e-08,3.994182825088500977e+00,-1.651117205619812012e-02,-1.919105276465415955e-02
2.183000000000000000e+03,1.720000076293945312e+01,1.000000000000000000e+00,3.266137227342369442e-08,7.075059471617350937e-08,3.994186639785766602e+00,-1.651720702648162842e-02,-1.918632164597511292e-02
2.184000000000000000e+03,1.729999923706054688e+01,1.000000000000000000e+00,3.285180483203475887e-08,7.157019865644542733e-08,3.994191169738769531e+00,-1.652409136295318604e-02,-1.918056234717369080e-02
2.185000000000000000e+03,1.739999961853027344e+01,1.000000000000000000e+00,3.304224449607318093e-08,7.239457744390165317e-08,3.994196653366088867e+00,-1.653192192316055298e-02,-1.917487755417823792e-02
2.186000000000000000e+03,1.750000000000000000e+01,1.000000000000000000e+00,3.323268060739792418e-08,7.322372397311482928e-08,3.994203090667724609e+00,-1.654080860316753387e-02,-1.916805841028690338e-02
2.187000000000000000e+03,1.760000038146972656e+01,1.000000000000000000e+00,3.342311671872266743e-08,7.405761692780288286e-08,3.994210958480834961e+00,-1.655086502432823181e-02,-1.916044950485229492e-02
2.188000000000000000e+03,1.770000076293945312e+01,1.000000000000000000e+00,3.361355638276108948e-08,7.489627762424788671e-08,3.994220495223999023e+00,-1.656221039593219757e-02,-1.915202476084232330e-02
2.189000000000000000e+03,1.779999923706054688e+01,1.000000000000000000e+00,3.380399249408583273e-08,7.573967764074041042e-08,3.994231700897216797e+00,-1.657496578991413116e-02,-1.914239302277565002e-02
2.190000000000000000e+03,1.789999961853027344e+01,1.000000000000000000e+00,3.399443215812425478e-08,7.658785250441724202e-08,3.994245290756225586e+00,-1.658925041556358337e-02,-1.913273520767688751e-02
2.191000000000000000e+03,1.800000000000000000e+01,1.000000000000000000e+00,3.418487182216267684e-08,7.744078800442366628e-08,3.994261503219604492e+00,-1.660517230629920959e-02,-1.912197470664978027e-02
2.192000000000000000e+03,1.810000038146972656e+01,1.000000000000000000e+00,3.437531503891477769e-08,7.829848414075968321e-08,3.994280576705932617e+00,-1.662281528115272522e-02,-1.911064051091670990e-02
2.193000000000000000e+03,1.820000076293945312e+01,1.000000000000000000e+00,3.456575825566687854e-08,7.916093380799793522e-08,3.994303464889526367e+00,-1.664222031831741333e-02,-1.909896172583103180e-02
2.194000000000000000e+03,1.829999923706054688e+01,1.000000000000000000e+00,3.475619791970530059e-08,8.002812990071106469e-08,3.994330406188964844e+00,-1.666334643959999084e-02,-1.908691227436065674e-02
2.195000000000000000e+03,1.839999961853027344e+01,1.000000000000000000e+00,3.494664468917108024e-08,8.090010084060850204e-08,3.994362115859985352e+00,-1.668603718280792236e-02,-1.907616108655929565e-02
2.196000000000000000e+03,1.850000000000000000e+01,1.000000000000000000e+00,3.513709501135053870e-08,8.177682531140817446e-08,3.994399309158325195e+00,-1.670992933213710785e-02,-1.906628347933292389e-02
2.197000000000000000e+03,1.860000038146972656e+01,1.000000000000000000e+00,3.532754533352999715e-08,8.265831041853743955e-08,3.994442701339721680e+00,-1.673435419797897339e-02,-1.905865035951137543e-02
2.198000000000000000e+03,1.870000076293945312e+01,1.000000000000000000e+00,3.551799920842313441e-08,8.354454905656893970e-08,3.994493246078491211e+00,-1.675817184150218964e-02,-1.905456371605396271e-02
2.199000000000000000e+03,1.879999923706054688e+01,1.000000000000000000e+00,3.570845308331627166e-08,8.443553412007531733e-08,3.994550943374633789e+00,-1.677953079342842102e-02,-1.905530132353305817e-02
2.200000000000000000e+03,1.889999961853027344e+01,1.000000000000000000e+00,3.589891406363676651e-08,8.533128692533864523e-08,3.994616270065307617e+00,-1.679554954171180725e-02,-1.906402781605720520e-02
2.201000000000000000e+03,1.900000000000000000e+01,1.000000000000000000e+00,3.608937859667094017e-08,8.623179326150420820e-08,3.994688987731933594e+00,-1.680188439786434174e-02,-1.908187195658683777e-02
2.202000000000000000e+03,1.910000038146972656e+01,1.000000000000000000e+00,3.627984668241879262e-08,8.713705312857200624e-08,3.994767665863037109e+00,-1.679224148392677307e-02,-1.911149546504020691e-02
2.203000000000000000e+03,1.920000076293945312e+01,1.000000000000000000e+00,3.647031832088032388e-08,8.804706652654203936e-08,3.994850397109985352e+00,-1.675792783498764038e-02,-1.915464922785758972e-02
2.204000000000000000e+03,1.929999923706054688e+01,1.000000000000000000e+00,3.666078640662817634e-08,8.896181924455959233e-08,3.994933128356933594e+00,-1.668773964047431946e-02,-1.921121962368488312e-02
2.205000000000000000e+03,1.939999961853027344e+01,1.000000000000000000e+00,3.685126159780338639e-08,8.988133970433409559e-08,3.995011091232299805e+00,-1.656870171427726746e-02,-1.927981153130531311e-02
2.206000000000000000e+03,1.950000000000000000e+01,1.000000000000000000e+00,3.704174034169227525e-08,9.080560658958347631e-08,3.995078086853027344e+00,-1.638836599886417389e-02,-1.935233548283576965e-02
2.207000000000000000e+03,1.960000038146972656e+01,1.000000000000000000e+00,3.723221553286748531e-08,9.173463411116244970e-08,3.995128393173217773e+00,-1.613911055028438568e-02,-1.941677182912826538e-02
2.208000000000000000e+03,1.970000076293945312e+01,1.000000000000000000e+00,3.742268717132901656e-08,9.266842226907101576e-08,3.995157480239868164e+00,-1.582393981516361237e-02,-1.945570111274719238e-02
2.209000000000000000e+03,1.979999923706054688e+01,1.000000000000000000e+00,3.761315170436319022e-08,9.360694974702710169e-08,3.995165348052978516e+00,-1.546159666031599045e-02,-1.944933645427227020e-02
2.210000000000000000e+03,1.989999961853027344e+01,1.000000000000000000e+00,3.780361268468368507e-08,9.455026628302221070e-08,3.995157480239868164e+00,-1.508733909577131271e-02,-1.938298903405666351e-02
2.211000000000000000e+03,2.000000000000000000e+01,1.000000000000000000e+00,3.799407011229050113e-08,9.549835766620162758e-08,3.995145320892333984e+00,-1.474672369658946991e-02,-1.924957707524299622e-02
2.212000000000000000e+03,0.000000000000000000e+00,1.100000023841857910e+00,1.936798730961057177e-37,6.335258586305397649e-38,3.720746278762817383e+00,1.116223812103271484e+00,2.398290187120437622e-01
2.213000000000000000e+03,1.000000014901161194e-01,1.100000023841857910e+00,1.612323330402176680e-10,2.969311602152302498e-11,3.680893659591674805e+00,9.833821654319763184e-01,2.018299400806427002e-01
2.214000000000000000e+03,2.000000029802322388e-01,1.100000023841857910e+00,3.260141878680400396e-10,6.688160442136492634e-11,3.722358226776123047e+00,8.731306791305541992e-01,2.216672897338867188e-01
2.215000000000000000e+03,3.000000119209289551e-01,1.100000023841857910e+00,4.942808384811314681e-10,1.106960217933661283e-10,3.762944936752319336e+00,7.644861936569213867e-01,2.319315522909164429e-01
2.216000000000000000e+03,4.000000059604644775e-01,1.100000023841857910e+00,6.658557039074253225e-10,1.602607629935803857e-10,3.801277637481689453e+00,6.606823205947875977e-01,2.330179512500762939e-01
2.217000000000000000e+03,5.000000000000000000e-01,1.100000023841857910e+00,8.404633100589364858e-10,2.147555883125207288e-10,3.836070299148559570e+00,5.643683075904846191e-01,2.260367423295974731e-01
2.218000000000000000e+03,6.000000238418579102e-01,1.100000023841857910e+00,1.017755879573201128e-09,2.734651949332089771e-10,3.866333246231079102e+00,4.773044586181640625e-01,2.125907093286514282e-01
2.219000000000000000e+03,6.999999880790710449e-01,1.100000023841857910e+00,1.197346555237288612e-09,3.358092415250979457e-10,3.891498804092407227e+00,4.003088772296905518e-01,1.944893747568130493e-01
2.220000000000000000e+03,8.000000119209289551e-01,1.100000023841857910e+00,1.378843039745447641e-09,4.013521182066881465e-10,3.911444425582885742e+00,3.333963155746459961e-01,1.734894812107086182e-01
2.221000000000000000e+03,8.999999761581420898e-01,1.100000023841857910e+00,1.561872520206009085e-09,4.697954802956871845e-10,3.926424741744995117e+00,2.760106325149536133e-01,1.511166095733642578e-01
2.222000000000000000e+03,1.000000000000000000e+00,1.100000023841857910e+00,1.746100264377048461e-09,5.409607761741597187e-10,3.936958551406860352e+00,2.272615581750869751e-01,1.285787969827651978e-01
2.223000000000000000e+03,1.100000023841857910e+00,1.100000023841857910e+00,1.931236948138348453e-09,6.147666264944007253e-10,3.943707227706909180e+00,1.861163228750228882e-01,1.067554950714111328e-01
2.224000000000000000e+03,1.200000047683715820e+00,1.100000023841857910e+00,2.117042541271985101e-09,6.912060923625062969e-10,3.947371959686279297e+00,1.515307724475860596e-01,8.623258769512176514e-02
2.225000000000000000e+03,1.299999952316284180e+00,1.100000023841857910e+00,2.303321533503321916e-09,7.703261362124180778e-10,3.948622703552246094e+00,1.225265413522720337e-01,6.735819578170776367e-02
2.226000000000000000e+03,1.399999976158142090e+00,1.100000023841857910e+00,2.489921158144170477e-09,8.522110794828563485e-10,3.948056697845458984e+00,9.822838753461837769e-02,5.030113831162452698e-02
2.227000000000000000e+03,1.500000000000000000e+00,1.100000023841857910e+00,2.676721955197081115e-09,9.369686138072097492e-10,3.946181058883666992e+00,7.787653058767318726e-02,3.510343655943870544e-02
2.228000000000000000e+03,1.600000023841857910e+00,1.100000023841857910e+00,2.863634440686269045e-09,1.024720197584372272e-09,3.943409442901611328e+00,6.082388386130332947e-02,2.172216959297657013e-02
2.229000000000000000e+03,1.700000047683715820e+00,1.100000023841857910e+00,3.050592223274861681e-09,1.115593506462175810e-09,3.940069675445556641e+00,4.652623087167739868e-02,1.006142515689134598e-02
2.230000000000000000e+03,1.799999952316284180e+00,1.100000023841857910e+00,3.237547119283590291e-09,1.209717326311476882e-09,3.936413526535034180e+00,3.452946618199348450e-02,-4.708131655206670985e-06
2.231000000000000000e+03,1.899999976158142090e+00,1.100000023841857910e+00,3.424465822021716122e-09,1.307218333579385217e-09,3.932630777359008789e+00,2.445633336901664734e-02,-8.616403676569461823e-03
2.232000000000000000e+03,2.000000000000000000e+00,1.100000023841857910e+00,3.611325904984141744e-09,1.408217986664794807e-09,3.928859472274780273e+00,1.599419675767421722e-02,-1.591726019978523254e-02
2.233000000000000000e+03,2.099999904632568359e+00,1.100000023841857910e+00,3.798112935271547030e-09,1.512831748762266670e-09,3.925197124481201172e+00,8.884084410965442657e-03,-2.204777300357818604e-02
2.234000000000000000e+03,2.200000047683715820e+00,1.100000023841857910e+00,3.984819585411969456e-09,1.621168421728214071e-09,3.921709775924682617e+00,2.911293879151344299e-03,-2.714132331311702728e-02
2.235000000000000000e+03,2.299999952316284180e+00,1.100000023841857910e+00,4.171441858602520369e-09,1.733328480746365585e-09,3.918439388275146484e+00,-2.102380851283669472e-03,-3.132161498069763184e-02
2.236000000000000000e+03,2.400000095367431641e+00,1.100000023841857910e+00,4.357980198932409621e-09,1.849406183751511890e-09,3.915410280227661133e+00,-6.305275950580835342e-03,-3.470224142074584961e-02
2.237000000000000000e+03,2.500000000000000000e+00,1.100000023841857910e+00,4.544436382758476611e-09,1.969487239961154046e-09,3.912632226943969727e+00,-9.821126237511634827e-03,-3.738582134246826172e-02
2.238000000000000000e+03,2.599999904632568359e+00,1.100000023841857910e+00,4.730813962794400140e-09,2.093651030321552753e-09,3.910106658935546875e+00,-1.275352481752634048e-02,-3.946487233042716980e-02
2.239000000000000000e+03,2.700000047683715820e+00,1.100000023841857910e+00,4.917118268110698409e-09,2.221970385463123421e-09,3.907827615737915039e+00,-1.518946234136819839e-02,-4.102197661995887756e-02
2.240000000000000000e+03,2.799999952316284180e+00,1.100000023841857910e+00,5.103353295510260068e-09,2.354511030588923859e-09,3.905784368515014648e+00,-1.720223203301429749e-02,-4.213044419884681702e-02
2.241000000000000000e+03,2.900000095367431641e+00,1.100000023841857910e+00,5.289526150420442718e-09,2.491333361831493676e-09,3.903963565826416016e+00,-1.885383576154708862e-02,-4.285553470253944397e-02
2.242000000000000000e+03,3.000000000000000000e+00,1.100000023841857910e+00,5.475640829644135010e-09,2.632491558074434579e-09,3.902349710464477539e+00,-2.019687928259372711e-02,-4.325455799698829651e-02
2.243000000000000000e+03,3.099999904632568359e+00,1.100000023841857910e+00,5.661702662251855145e-09,2.778035579353854700e-09,3.900927066802978516e+00,-2.127616852521896362e-02,-4.337828978896141052e-02
2.244000000000000000e+03,3.200000047683715820e+00,1.100000023841857910e+00,5.847718309581750873e-09,2.928010278679948897e-09,3.899679422378540039e+00,-2.212998643517494202e-02,-4.327124729752540588e-02
2.245000000000000000e+03,3.299999952316284180e+00,1.100000023841857910e+00,6.033690880258291145e-09,3.082455624081603673e-09,3.898590564727783203e+00,-2.279114723205566406e-02,-4.297231137752532959e-02
2.246000000000000000e+03,3.400000095367431641e+00,1.100000023841857910e+00,6.219626147441204012e-09,3.241408474963236586e-09,3.897645473480224609e+00,-2.328785881400108337e-02,-4.251579195261001587e-02
2.247000000000000000e+03,3.500000000000000000e+00,1.100000023841857910e+00,6.405526775665748573e-09,3.404900805747956838e-09,3.896829366683959961e+00,-2.364443615078926086e-02,-4.193129390478134155e-02
2.248000000000000000e+03,3.599999904632568359e+00,1.100000023841857910e+00,6.591397649913233181e-09,3.572962370412824384e-09,3.896128416061401367e+00,-2.388188615441322327e-02,-4.124487191438674927e-02
2.249000000000000000e+03,3.700000047683715820e+00,1.100000023841857910e+00,6.777242766986546485e-09,3.745620258399640079e-09,3.895530223846435547e+00,-2.401839941740036011e-02,-4.047900438308715820e-02
2.250000000000000000e+03,3.799999952316284180e+00,1.100000023841857910e+00,6.963063459153318036e-09,3.922896674168896425e-09,3.895023107528686523e+00,-2.406974509358406067e-02,-3.965301439166069031e-02
2.251000000000000000e+03,3.900000095367431641e+00,1.100000023841857910e+00,7.148864611394856183e-09,4.104813378091876075e-09,3.894596576690673828e+00,-2.404961921274662018e-02,-3.878384083509445190e-02
2.252000000000000000e+03,4.000000000000000000e+00,1.100000023841857910e+00,7.334646667800370778e-09,4.291388577826182882e-09,3.894240617752075195e+00,-2.396992594003677368e-02,-3.788568824529647827e-02
2.253000000000000000e+03,4.099999904632568359e+00,1.100000023841857910e+00,7.520412736994330771e-09,4.482638704672581298e-09,3.893946647644042969e+00,-2.384101226925849915e-02,-3.697097301483154297e-02
2.254000000000000000e+03,4.199999809265136719e+00,1.100000023841857910e+00,7.706165483511995262e-09,4.678578857664206225e-09,3.893706798553466797e+00,-2.367187663912773132e-02,-3.605007752776145935e-02
2.255000000000000000e+03,4.300000190734863281e+00,1.100000023841857910e+00,7.891907571888623352e-09,4.879222359477353166e-09,3.893513917922973633e+00,-2.347034029662609100e-02,-3.513187915086746216e-02
2.256000000000000000e+03,4.400000095367431641e+00,1.100000023841857910e+00,8.077637225767375639e-09,5.084579424163848671e-09,3.893362045288085938e+00,-2.324318885803222656e-02,-3.422347083687782288e-02
2.257000000000000000e+03,4.500000000000000000e+00,1.100000023841857910e+00,8.263357997861930926e-09,5.294660265775519292e-09,3.893244981765747070e+00,-2.299630828201770782e-02,-3.333120048046112061e-02
2.258000000000000000e+03,4.599999904632568359e+00,1.100000023841857910e+00,8.449071664529128611e-09,5.509473322007352181e-09,3.893158197402954102e+00,-2.273478731513023376e-02,-3.245996683835983276e-02
2.259000000000000000e+03,4.699999809265136719e+00,1.100000023841857910e+00,8.634777337590548996e-09,5.729027030554334488e-09,3.893097162246704102e+00,-2.246301807463169098e-02,-3.161377832293510437e-02
2.260000000000000000e+03,4.800000190734863281e+00,1.100000023841857910e+00,8.820478569759870879e-09,5.953328052754613964e-09,3.893057823181152344e+00,-2.218476869165897369e-02,-3.079587966203689575e-02
2.261000000000000000e+03,4.900000095367431641e+00,1.100000023841857910e+00,9.006174472858674562e-09,6.182380385411079260e-09,3.893036842346191406e+00,-2.190327458083629608e-02,-3.000843897461891174e-02
2.262000000000000000e+03,5.000000000000000000e+00,1.100000023841857910e+00,9.191865935065379745e-09,6.416189801683458427e-09,3.893031358718872070e+00,-2.162128314375877380e-02,-2.925351075828075409e-02
2.263000000000000000e+03,5.099999904632568359e+00,1.100000023841857910e+00,9.377552956379986426e-09,6.654760298374640115e-09,3.893038511276245117e+00,-2.134111523628234863e-02,-2.853224053978919983e-02
2.264000000000000000e+03,5.199999809265136719e+00,1.100000023841857910e+00,9.563237313159334008e-09,6.898094984109093275e-09,3.893056154251098633e+00,-2.106472477316856384e-02,-2.784539200365543365e-02
2.265000000000000000e+03,5.300000190734863281e+00,1.100000023841857910e+00,9.748919893581842189e-09,7.146197855689706557e-09,3.893082141876220703e+00,-2.079372853040695190e-02,-2.719340845942497253e-02
2.266000000000000000e+03,5.400000095367431641e+00,1.100000023841857910e+00,9.934599809469091269e-09,7.399069357205689812e-09,3.893115043640136719e+00,-2.052946016192436218e-02,-2.657603658735752106e-02
2.267000000000000000e+03,5.500000000000000000e+00,1.100000023841857910e+00,1.012027706082108125e-08,7.656712597281511989e-09,3.893153190612792969e+00,-2.027298882603645325e-02,-2.599326707422733307e-02
2.268000000000000000e+03,5.599999904632568359e+00,1.100000023841857910e+00,1.030595342399465153e-08,7.919128464095592790e-09,3.893195152282714844e+00,-2.002516388893127441e-02,-2.544449083507061005e-02
2.269000000000000000e+03,5.699999809265136719e+00,1.100000023841857910e+00,1.049162801081138241e-08,8.186317401737142063e-09,3.893239974975585938e+00,-1.978663913905620575e-02,-2.492899075150489807e-02
2.270000000000000000e+03,5.800000190734863281e+00,1.100000023841857910e+00,1.067730259762811329e-08,8.458283851098258310e-09,3.893286705017089844e+00,-1.955789141356945038e-02,-2.444596588611602783e-02
2.271000000000000000e+03,5.900000095367431641e+00,1.100000023841857910e+00,1.086297629626642447e-08,8.735023371286843030e-09,3.893334627151489258e+00,-1.933925412595272064e-02,-2.399414032697677612e-02
2.272000000000000000e+03,6.000000000000000000e+00,1.100000023841857910e+00,1.104864821854789625e-08,9.016538626838155324e-09,3.893383026123046875e+00,-1.913093030452728271e-02,-2.357266470789909363e-02
2.273000000000000000e+03,6.099999904632568359e+00,1.100000023841857910e+00,1.123432014082936803e-08,9.302830505930614891e-09,3.893431425094604492e+00,-1.893301121890544891e-02,-2.318025939166545868e-02
2.274000000000000000e+03,6.199999809265136719e+00,1.100000023841857910e+00,1.141999117493242011e-08,9.593897232207382331e-09,3.893479108810424805e+00,-1.874548941850662231e-02,-2.281567640602588654e-02
2.275000000000000000e+03,6.300000190734863281e+00,1.100000023841857910e+00,1.160566309721389189e-08,9.889742358382136445e-09,3.893526077270507812e+00,-1.856828108429908752e-02,-2.247772179543972015e-02
2.276000000000000000e+03,6.400000095367431641e+00,1.100000023841857910e+00,1.179133413131694397e-08,1.019036055538435903e-08,3.893571853637695312e+00,-1.840123534202575684e-02,-2.216481976211071014e-02
2.277000000000000000e+03,6.500000000000000000e+00,1.100000023841857910e+00,1.197700516541999605e-08,1.049575359957088949e-08,3.893616199493408203e+00,-1.824414171278476715e-02,-2.187593281269073486e-02
2.278000000000000000e+03,6.599999904632568359e+00,1.100000023841857910e+00,1.216267531134462843e-08,1.080592149094172782e-08,3.893658876419067383e+00,-1.809674128890037537e-02,-2.160966396331787109e-02
2.279000000000000000e+03,6.699999809265136719e+00,1.100000023841857910e+00,1.234834634544768051e-08,1.112086334131845433e-08,3.893699884414672852e+00,-1.795874349772930145e-02,-2.136472798883914948e-02
2.280000000000000000e+03,6.800000190734863281e+00,1.100000023841857910e+00,1.253401826772915229e-08,1.144058003887948871e-08,3.893738985061645508e+00,-1.782982051372528076e-02,-2.113994024693965912e-02
2.281000000000000000e+03,6.900000095367431641e+00,1.100000023841857910e+00,1.271968841365378466e-08,1.176506891908957186e-08,3.893776178359985352e+00,-1.770962961018085480e-02,-2.093379572033882141e-02
2.282000000000000000e+03,7.000000000000000000e+00,1.100000023841857910e+00,1.290535944775683674e-08,1.209432998194870379e-08,3.893811464309692383e+00,-1.759780757129192352e-02,-2.074536681175231934e-02
2.283000000000000000e+03,7.099999904632568359e+00,1.100000023841857910e+00,1.309103048185988882e-08,1.242836233927846479e-08,3.893844842910766602e+00,-1.749397628009319305e-02,-2.057339996099472046e-02
2.284000000000000000e+03,7.199999809265136719e+00,1.100000023841857910e+00,1.327670151596294090e-08,1.276716599107885486e-08,3.893876314163208008e+00,-1.739775575697422028e-02,-2.041678130626678467e-02
2.285000000000000000e+03,7.300000190734863281e+00,1.100000023841857910e+00,1.346237343824441268e-08,1.311074182552829370e-08,3.893905878067016602e+00,-1.730876043438911438e-02,-2.027452178299427032e-02
2.286000000000000000e+03,7.400000095367431641e+00,1.100000023841857910e+00,1.364804447234746476e-08,1.345908540173468282e-08,3.893933534622192383e+00,-1.722661033272743225e-02,-2.014533057808876038e-02
2.287000000000000000e+03,7.500000000000000000e+00,1.100000023841857910e+00,1.383371639462893654e-08,1.381219849605486161e-08,3.893959283828735352e+00,-1.715092174708843231e-02,-2.002849988639354706e-02
2.288000000000000000e+03,7.599999904632568359e+00,1.100000023841857910e+00,1.401938831691040832e-08,1.417008022031041037e-08,3.893983602523803711e+00,-1.708132401108741760e-02,-1.992301642894744873e-02
2.289000000000000000e+03,7.699999809265136719e+00,1.100000023841857910e+00,1.420505935101346040e-08,1.453272968632290940e-08,3.894006013870239258e+00,-1.701744645833969116e-02,-1.982800103724002838e-02
2.290000000000000000e+03,7.800000190734863281e+00,1.100000023841857910e+00,1.439073216147335188e-08,1.490014778227077841e-08,3.894026756286621094e+00,-1.695893518626689911e-02,-1.974271424114704132e-02
2.291000000000000000e+03,7.900000095367431641e+00,1.100000023841857910e+00,1.457640497193324336e-08,1.527233273179717798e-08,3.894046068191528320e+00,-1.690544374287128448e-02,-1.966610364615917206e-02
2.292000000000000000e+03,8.000000000000000000e+00,1.100000023841857910e+00,1.476207689421471514e-08,1.564928275854526873e-08,3.894063711166381836e+00,-1.685664057731628418e-02,-1.959770545363426208e-02
2.293000000000000000e+03,8.100000381469726562e+00,1.100000023841857910e+00,1.494774970467460662e-08,1.603099875069347036e-08,3.894080162048339844e+00,-1.681220531463623047e-02,-1.953683979809284210e-02
2.294000000000000000e+03,8.199999809265136719e+00,1.100000023841857910e+00,1.513342162695607840e-08,1.641747893188494345e-08,3.894095420837402344e+00,-1.677182875573635101e-02,-1.948249153792858124e-02
2.295000000000000000e+03,8.300000190734863281e+00,1.100000023841857910e+00,1.531909532559438958e-08,1.680872685483336682e-08,3.894109249114990234e+00,-1.673522032797336578e-02,-1.943470351397991180e-02
2.296000000000000000e+03,8.399999618530273438e+00,1.100000023841857910e+00,1.550476724787586136e-08,1.720473541411138285e-08,3.894121885299682617e+00,-1.670209877192974091e-02,-1.939218491315841675e-02
2.297000000000000000e+03,8.500000000000000000e+00,1.100000023841857910e+00,1.569044094651417254e-08,1.760551171514634916e-08,3.894133567810058594e+00,-1.667220331728458405e-02,-1.935514621436595917e-02
2.298000000000000000e+03,8.600000381469726562e+00,1.100000023841857910e+00,1.587611464515248372e-08,1.801105042886774754e-08,3.894144058227539062e+00,-1.664528064429759979e-02,-1.932256110012531281e-02
2.299000000000000000e+03,8.699999809265136719e+00,1.100000023841857910e+00,1.606178656743395550e-08,1.842134977891873859e-08,3.894153833389282227e+00,-1.662109792232513428e-02,-1.929398067295551300e-02
2.300000000000000000e+03,8.800000190734863281e+00,1.100000023841857910e+00,1.624746204242910608e-08,1.883641509436984052e-08,3.894162654876708984e+00,-1.659942790865898132e-02,-1.926954276859760284e-02
2.301000000000000000e+03,8.899999618530273438e+00,1.100000023841857910e+00,1.643313396471057786e-08,1.925624104615053511e-08,3.894170522689819336e+00,-1.658006571233272552e-02,-1.924813725054264069e-02
2.302000000000000000e+03,9.000000000000000000e+00,1.100000023841857910e+00,1.661880766334888904e-08,1.968083118697450118e-08,3.894177675247192383e+00,-1.656281575560569763e-02,-1.923014409840106964e-02
2.303000000000000000e+03,9.100000381469726562e+00,1.100000023841857910e+00,1.680448313834403962e-08,2.011018374048489932e-08,3.894184112548828125e+00,-1.654749177396297455e-02,-1.921469904482364655e-02
2.304000000000000000e+03,9.199999809265136719e+00,1.100000023841857910e+00,1.699015506062551140e-08,2.054429337761121133e-08,3.894190073013305664e+00,-1.653392612934112549e-02,-1.920150406658649445e-02
2.305000000000000000e+03,9.300000190734863281e+00,1.100000023841857910e+00,1.717583053562066198e-08,2.098316898013763421e-08,3.894195318222045898e+00,-1.652195863425731659e-02,-1.919084228575229645e-02
2.306000000000000000e+03,9.399999618530273438e+00,1.100000023841857910e+00,1.736150245790213376e-08,2.142680166627997096e-08,3.894200086593627930e+00,-1.651144213974475861e-02,-1.918173581361770630e-02
2.307000000000000000e+03,9.500000000000000000e+00,1.100000023841857910e+00,1.754717793289728434e-08,2.187520031782241858e-08,3.894204139709472656e+00,-1.650224067270755768e-02,-1.917469315230846405e-02
2.308000000000000000e+03,9.600000381469726562e+00,1.100000023841857910e+00,1.773285163153559552e-08,2.232835960569445888e-08,3.894207954406738281e+00,-1.649422571063041687e-02,-1.916896365582942963e-02
2.309000000000000000e+03,9.699999809265136719e+00,1.100000023841857910e+00,1.791852533017390670e-08,2.278627420082557364e-08,3.894211292266845703e+00,-1.648727990686893463e-02,-1.916436292231082916e-02
2.310000000000000000e+03,9.800000190734863281e+00,1.100000023841857910e+00,1.810420080516905728e-08,2.324895298499995988e-08,3.894214153289794922e+00,-1.648129895329475403e-02,-1.916127279400825500e-02
2.311000000000000000e+03,9.899999618530273438e+00,1.100000023841857910e+00,1.828987450380736846e-08,2.371638885279025999e-08,3.894216775894165039e+00,-1.647618040442466736e-02,-1.915881223976612091e-02
2.312000000000000000e+03,1.000000000000000000e+01,1.100000023841857910e+00,1.847554820244567964e-08,2.418859068598067097e-08,3.894219160079956055e+00,-1.647183485329151154e-02,-1.915757730603218079e-02
2.313000000000000000e+03,1.010000038146972656e+01,1.100000023841857910e+00,1.866122367744083022e-08,2.466555137914383522e-08,3.894221067428588867e+00,-1.646818034350872040e-02,-1.915690302848815918e-02
2.314000000000000000e+03,1.019999980926513672e+01,1.100000023841857910e+00,1.884689737607914140e-08,2.514726560320923454e-08,3.894222736358642578e+00,-1.646513678133487701e-02,-1.915666274726390839e-02
2.315000000000000000e+03,1.030000019073486328e+01,1.100000023841857910e+00,1.903257285107429198e-08,2.563374579267474473e-08,3.894224405288696289e+00,-1.646263711154460907e-02,-1.915733888745307922e-02
2.316000000000000000e+03,1.039999961853027344e+01,1.100000023841857910e+00,1.921824654971260316e-08,2.612498128939932940e-08,3.894225597381591797e+00,-1.646061800420284271e-02,-1.915807649493217468e-02
2.317000000000000000e+03,1.050000000000000000e+01,1.100000023841857910e+00,1.940392024835091433e-08,2.662098097516718553e-08,3.894226789474487305e+00,-1.645902171730995178e-02,-1.915956661105155945e-02
2.318000000000000000e+03,1.060000038146972656e+01,1.100000023841857910e+00,1.958959572334606491e-08,2.712174129726463434e-08,3.894227743148803711e+00,-1.645779609680175781e-02,-1.916116662323474884e-02
2.319000000000000000e+03,1.069999980926513672e+01,1.100000023841857910e+00,1.977526942198437609e-08,2.762725515026431822e-08,3.894228458404541016e+00,-1.645689457654953003e-02,-1.916281506419181824e-02
2.320000000000000000e+03,1.080000019073486328e+01,1.100000023841857910e+00,1.996094489697952667e-08,2.813753319230727357e-08,3.894229173660278320e+00,-1.645627431571483612e-02,-1.916503719985485077e-02
2.321000000000000000e+03,1.089999961853027344e+01,1.100000023841857910e+00,2.014661859561783785e-08,2.865256654160930339e-08,3.894229650497436523e+00,-1.645589433610439301e-02,-1.916701532900333405e-02
2.322000000000000000e+03,1.100000000000000000e+01,1.100000023841857910e+00,2.033229407061298843e-08,2.917236407995460468e-08,3.894230127334594727e+00,-1.645572483539581299e-02,-1.916948147118091583e-02
2.323000000000000000e+03,1.110000038146972656e+01,1.100000023841857910e+00,2.051796954560813901e-08,2.969692047827265924e-08,3.894230365753173828e+00,-1.645573042333126068e-02,-1.917182095348834991e-02
2.324000000000000000e+03,1.119999980926513672e+01,1.100000023841857910e+00,2.070364324424645019e-08,3.022623218384978827e-08,3.894230604171752930e+00,-1.645588688552379608e-02,-1.917400583624839783e-02
2.325000000000000000e+03,1.130000019073486328e+01,1.100000023841857910e+00,2.088931871924160077e-08,3.076030452575650997e-08,3.894230842590332031e+00,-1.645616814494132996e-02,-1.917658559978008270e-02
2.326000000000000000e+03,1.139999961853027344e+01,1.100000023841857910e+00,2.107499241787991195e-08,3.129913395127914555e-08,3.894231081008911133e+00,-1.645655371248722076e-02,-1.917877048254013062e-02
2.327000000000000000e+03,1.150000000000000000e+01,1.100000023841857910e+00,2.126066789287506253e-08,3.184272756584505260e-08,3.894231081008911133e+00,-1.645702309906482697e-02,-1.918131113052368164e-02
2.328000000000000000e+03,1.160000038146972656e+01,1.100000023841857910e+00,2.144634159151337371e-08,3.239108181674055231e-08,3.894231081008911133e+00,-1.645755954086780548e-02,-1.918361708521842957e-02
2.329000000000000000e+03,1.169999980926513672e+01,1.100000023841857910e+00,2.163201529015168489e-08,3.294418604582460830e-08,3.894231081008911133e+00,-1.645814813673496246e-02,-1.918567344546318054e-02
2.330000000000000000e+03,1.180000019073486328e+01,1.100000023841857910e+00,2.181769076514683547e-08,3.350205801666561456e-08,3.894231081008911133e+00,-1.645877398550510406e-02,-1.918804645538330078e-02
2.331000000000000000e+03,1.189999961853027344e+01,1.100000023841857910e+00,2.200336446378514665e-08,3.406468351840885589e-08,3.894231081008911133e+00,-1.645942963659763336e-02,-1.918996125459671021e-02
2.332000000000000000e+03,1.200000000000000000e+01,1.100000023841857910e+00,2.218903993878029723e-08,3.463207320919536869e-08,3.894230842590332031e+00,-1.646010205149650574e-02,-1.919218152761459351e-02
2.333000000000000000e+03,1.210000038146972656e+01,1.100000023841857910e+00,2.237471541377544781e-08,3.520421998359779536e-08,3.894230842590332031e+00,-1.646078377962112427e-02,-1.919412240386009216e-02
2.334000000000000000e+03,1.219999980926513672e+01,1.100000023841857910e+00,2.256038911241375899e-08,3.578112028890245710e-08,3.894230604171752930e+00,-1.646146923303604126e-02,-1.919578388333320618e-02
2.335000000000000000e+03,1.230000019073486328e+01,1.100000023841857910e+00,2.274606458740890957e-08,3.636278833596406912e-08,3.894230604171752930e+00,-1.646214909851551056e-02,-1.919774152338504791e-02
2.336000000000000000e+03,1.239999961853027344e+01,1.100000023841857910e+00,2.293173828604722075e-08,3.694920636121423740e-08,3.894230365753173828e+00,-1.646282151341438293e-02,-1.919922232627868652e-02
2.337000000000000000e+03,1.250000000000000000e+01,1.100000023841857910e+00,2.311741376104237133e-08,3.754039212822135596e-08,3.894230365753173828e+00,-1.646347902715206146e-02,-1.920099742710590363e-02
2.338000000000000000e+03,1.260000038146972656e+01,1.100000023841857910e+00,2.330308923603752191e-08,3.813633497884438839e-08,3.894230127334594727e+00,-1.646411977708339691e-02,-1.920248940587043762e-02
2.339000000000000000e+03,1.269999980926513672e+01,1.100000023841857910e+00,2.348876293467583309e-08,3.873703136036965589e-08,3.894229888916015625e+00,-1.646474190056324005e-02,-1.920370198786258698e-02
2.340000000000000000e+03,1.280000019073486328e+01,1.100000023841857910e+00,2.367443840967098367e-08,3.934249548365187366e-08,3.894229888916015625e+00,-1.646534167230129242e-02,-1.920521259307861328e-02
2.341000000000000000e+03,1.289999961853027344e+01,1.100000023841857910e+00,2.386011210830929485e-08,3.995270958512264770e-08,3.894229650497436523e+00,-1.646591722965240479e-02,-1.920625381171703339e-02
2.342000000000000000e+03,1.300000000000000000e+01,1.100000023841857910e+00,2.404578758330444543e-08,4.056768787563669321e-08,3.894229412078857422e+00,-1.646646857261657715e-02,-1.920759864151477814e-02
2.343000000000000000e+03,1.310000038146972656e+01,1.100000023841857910e+00,2.423146305829959601e-08,4.118742680248033139e-08,3.894229412078857422e+00,-1.646699570119380951e-02,-1.920867338776588440e-02
2.344000000000000000e+03,1.319999980926513672e+01,1.100000023841857910e+00,2.441713675693790719e-08,4.181191926022620464e-08,3.894229173660278320e+00,-1.646749489009380341e-02,-1.920947991311550140e-02
2.345000000000000000e+03,1.330000019073486328e+01,1.100000023841857910e+00,2.460281223193305777e-08,4.244117590701534937e-08,3.894229173660278320e+00,-1.646797172725200653e-02,-1.921059936285018921e-02
2.346000000000000000e+03,1.339999961853027344e+01,1.100000023841857910e+00,2.478848593057136895e-08,4.307518608470672916e-08,3.894228935241699219e+00,-1.646842062473297119e-02,-1.921126432716846466e-02
2.347000000000000000e+03,1.350000000000000000e+01,1.100000023841857910e+00,2.497416140556651953e-08,4.371396045144138043e-08,3.894228696823120117e+00,-1.646884717047214508e-02,-1.921224966645240784e-02
2.348000000000000000e+03,1.360000038146972656e+01,1.100000023841857910e+00,2.515983688056167011e-08,4.435749545450562437e-08,3.894228696823120117e+00,-1.646924763917922974e-02,-1.921297982335090637e-02
2.349000000000000000e+03,1.369999980926513672e+01,1.100000023841857910e+00,2.534551057919998129e-08,4.500578043575842457e-08,3.894228458404541016e+00,-1.646962761878967285e-02,-1.921345852315425873e-02
2.350000000000000000e+03,1.380000019073486328e+01,1.100000023841857910e+00,2.553118605419513187e-08,4.565883315876817505e-08,3.894228458404541016e+00,-1.646998524665832520e-02,-1.921426691114902496e-02
2.351000000000000000e+03,1.389999961853027344e+01,1.100000023841857910e+00,2.571685975283344305e-08,4.631663941268016060e-08,3.894228219985961914e+00,-1.647032424807548523e-02,-1.921463571488857269e-02
2.352000000000000000e+03,1.400000000000000000e+01,1.100000023841857910e+00,2.590253522782859363e-08,4.697920985563541763e-08,3.894228219985961914e+00,-1.647064648568630219e-02,-1.921533979475498199e-02
2.353000000000000000e+03,1.410000038146972656e+01,1.100000023841857910e+00,2.608821070282374421e-08,4.764653738220658852e-08,3.894227981567382812e+00,-1.647095195949077606e-02,-1.921580359339714050e-02
2.354000000000000000e+03,1.419999980926513672e+01,1.100000023841857910e+00,2.627388440146205539e-08,4.831862199239367328e-08,3.894227981567382812e+00,-1.647124439477920532e-02,-1.921603083610534668e-02
2.355000000000000000e+03,1.430000019073486328e+01,1.100000023841857910e+00,2.645955987645720597e-08,4.899546723891035072e-08,3.894227743148803711e+00,-1.647152751684188843e-02,-1.921659708023071289e-02
2.356000000000000000e+03,1.439999961853027344e+01,1.100000023841857910e+00,2.664523357509551715e-08,4.967706956904294202e-08,3.894227743148803711e+00,-1.647180318832397461e-02,-1.921673491597175598e-02
2.357000000000000000e+03,1.450000000000000000e+01,1.100000023841857910e+00,2.683090905009066773e-08,5.036343253550512600e-08,3.894227743148803711e+00,-1.647207513451576233e-02,-1.921721920371055603e-02
2.358000000000000000e+03,1.460000038146972656e+01,1.100000023841857910e+00,2.701658452508581831e-08,5.105455969101058145e-08,3.894227504730224609e+00,-1.647234708070755005e-02,-1.921746879816055298e-02
2.359000000000000000e+03,1.469999980926513672e+01,1.100000023841857910e+00,2.720225822372412949e-08,5.175043682470459316e-08,3.894227504730224609e+00,-1.647262461483478546e-02,-1.921748742461204529e-02
2.360000000000000000e+03,1.480000019073486328e+01,1.100000023841857910e+00,2.738793369871928007e-08,5.245107814744187635e-08,3.894227266311645508e+00,-1.647291332483291626e-02,-1.921785064041614532e-02
2.361000000000000000e+03,1.489999961853027344e+01,1.100000023841857910e+00,2.757360739735759125e-08,5.315647300108139461e-08,3.894227266311645508e+00,-1.647321693599224091e-02,-1.921778731048107147e-02
2.362000000000000000e+03,1.500000000000000000e+01,1.100000023841857910e+00,2.775928287235274183e-08,5.386663559647786315e-08,3.894227266311645508e+00,-1.647354476153850555e-02,-1.921806670725345612e-02
2.363000000000000000e+03,1.510000038146972656e+01,1.100000023841857910e+00,2.794495834734789241e-08,5.458155527549024555e-08,3.894227266311645508e+00,-1.647390238940715790e-02,-1.921810954809188843e-02
2.364000000000000000e+03,1.519999980926513672e+01,1.100000023841857910e+00,2.813063204598620359e-08,5.530122848540486302e-08,3.894227266311645508e+00,-1.647429913282394409e-02,-1.921791210770606995e-02
2.365000000000000000e+03,1.530000019073486328e+01,1.100000023841857910e+00,2.831630752098135417e-08,5.602566588436275197e-08,3.894227266311645508e+00,-1.647474430501461029e-02,-1.921804621815681458e-02
2.366000000000000000e+03,1.539999961853027344e+01,1.100000023841857910e+00,2.850198121961966535e-08,5.675485681422287598e-08,3.894227266311645508e+00,-1.647524908185005188e-02,-1.921774074435234070e-02
2.367000000000000000e+03,1.550000000000000000e+01,1.100000023841857910e+00,2.868765669461481593e-08,5.748881193312627147e-08,3.894227266311645508e+00,-1.647582836449146271e-02,-1.921775750815868378e-02
2.368000000000000000e+03,1.560000038146972656e+01,1.100000023841857910e+00,2.887333216960996651e-08,5.822752768835925963e-08,3.894227504730224609e+00,-1.647649705410003662e-02,-1.921751163899898529e-02
2.369000000000000000e+03,1.569999980926513672e+01,1.100000023841857910e+00,2.905900586824827769e-08,5.897099697449448286e-08,3.894227504730224609e+00,-1.647726818919181824e-02,-1.921699568629264832e-02
2.370000000000000000e+03,1.580000019073486328e+01,1.100000023841857910e+00,2.924468134324342827e-08,5.971922689695929876e-08,3.894227743148803711e+00,-1.647816412150859833e-02,-1.921677216887474060e-02
2.371000000000000000e+03,1.589999961853027344e+01,1.100000023841857910e+00,2.943035504188173945e-08,6.047221745575370733e-08,3.894227981567382812e+00,-1.647920347750186920e-02,-1.921606436371803284e-02
2.372000000000000000e+03,1.600000000000000000e+01,1.100000023841857910e+00,2.961603051687689003e-08,6.122996865087770857e-08,3.894228458404541016e+00,-1.648041419684886932e-02,-1.921562664210796356e-02
2.373000000000000000e+03,1.610000038146972656e+01,1.100000023841857910e+00,2.980170599187204061e-08,6.199248048233130248e-08,3.894228935241699219e+00,-1.648182049393653870e-02,-1.921486295759677887e-02
2.374000000000000000e+03,1.620000076293945312e+01,1.100000023841857910e+00,2.998738324322403059e-08,6.275975295011448907e-08,3.894229650497436523e+00,-1.648345589637756348e-02,-1.921395026147365570e-02
2.375000000000000000e+03,1.629999923706054688e+01,1.100000023841857910e+00,3.017305516550550237e-08,6.353176473794519552e-08,3.894230365753173828e+00,-1.648535579442977905e-02,-1.921248249709606171e-02
2.376000000000000000e+03,1.639999961853027344e+01,1.100000023841857910e+00,3.035873064050065295e-08,6.430855137296020985e-08,3.894231557846069336e+00,-1.648755557835102081e-02,-1.921158842742443085e-02
2.377000000000000000e+03,1.650000000000000000e+01,1.100000023841857910e+00,3.054440611549580353e-08,6.509009864430481684e-08,3.894232749938964844e+00,-1.649010367691516876e-02,-1.921009086072444916e-02
2.378000000000000000e+03,1.660000038146972656e+01,1.100000023841857910e+00,3.073008159049095411e-08,6.587640655197901651e-08,3.894234180450439453e+00,-1.649304479360580444e-02,-1.920834369957447052e-02
2.379000000000000000e+03,1.670000076293945312e+01,1.100000023841857910e+00,3.091575706548610469e-08,6.666747509598280885e-08,3.894236087799072266e+00,-1.649643667042255402e-02,-1.920631714165210724e-02
2.380000000000000000e+03,1.679999923706054688e+01,1.100000023841857910e+00,3.110142898776757647e-08,6.746328296003412106e-08,3.894238471984863281e+00,-1.650033704936504364e-02,-1.920359209179878235e-02
2.381000000000000000e+03,1.689999961853027344e+01,1.100000023841857910e+00,3.128710801547640585e-08,6.826386567126974114e-08,3.894241333007812500e+00,-1.650481112301349640e-02,-1.920128613710403442e-02
2.382000000000000000e+03,1.700000000000000000e+01,1.100000023841857910e+00,3.147278349047155643e-08,6.906920901883495389e-08,3.894244670867919922e+00,-1.650993339717388153e-02,-1.919821090996265411e-02
2.383000000000000000e+03,1.710000038146972656e+01,1.100000023841857910e+00,3.165846251818038581e-08,6.987931300272975932e-08,3.894248723983764648e+00,-1.651578024029731750e-02,-1.919471286237239838e-02
2.384000000000000000e+03,1.720000076293945312e+01,1.100000023841857910e+00,3.184413799317553639e-08,7.069417762295415741e-08,3.894253492355346680e+00,-1.652243733406066895e-02,-1.919075287878513336e-02
2.385000000000000000e+03,1.729999923706054688e+01,1.100000023841857910e+00,3.202981346817068697e-08,7.151378156322607538e-08,3.894259214401245117e+00,-1.652999408543109894e-02,-1.918591558933258057e-02
2.386000000000000000e+03,1.739999961853027344e+01,1.100000023841857910e+00,3.221549249587951635e-08,7.233816035068230121e-08,3.894266128540039062e+00,-1.653854548931121826e-02,-1.918132603168487549e-02
2.387000000000000000e+03,1.750000000000000000e+01,1.100000023841857910e+00,3.240116797087466693e-08,7.316729977446811972e-08,3.894274473190307617e+00,-1.654819026589393616e-02,-1.917581073939800262e-02
2.388000000000000000e+03,1.760000038146972656e+01,1.100000023841857910e+00,3.258685055129717512e-08,7.400119983458353090e-08,3.894284248352050781e+00,-1.655902899801731110e-02,-1.916974782943725586e-02
2.389000000000000000e+03,1.770000076293945312e+01,1.100000023841857910e+00,3.277252957900600450e-08,7.483985342560117715e-08,3.894295692443847656e+00,-1.657115668058395386e-02,-1.916315406560897827e-02
2.390000000000000000e+03,1.779999923706054688e+01,1.100000023841857910e+00,3.295820505400115508e-08,7.568325344209370087e-08,3.894309282302856445e+00,-1.658466458320617676e-02,-1.915569044649600983e-02
2.391000000000000000e+03,1.789999961853027344e+01,1.100000023841857910e+00,3.314388763442366326e-08,7.653142830577053246e-08,3.894325256347656250e+00,-1.659962162375450134e-02,-1.914859190583229065e-02
2.392000000000000000e+03,1.800000000000000000e+01,1.100000023841857910e+00,3.332957021484617144e-08,7.738436380577695672e-08,3.894343852996826172e+00,-1.661607250571250916e-02,-1.914084516465663910e-02
2.393000000000000000e+03,1.810000038146972656e+01,1.100000023841857910e+00,3.351525634798235842e-08,7.824205994211297366e-08,3.894365787506103516e+00,-1.663401164114475250e-02,-1.913304440677165985e-02
2.394000000000000000e+03,1.820000076293945312e+01,1.100000023841857910e+00,3.370094248111854540e-08,7.910450960935122566e-08,3.894391298294067383e+00,-1.665335707366466522e-02,-1.912548951804637909e-02
2.395000000000000000e+03,1.829999923706054688e+01,1.100000023841857910e+00,3.388662506154105358e-08,7.997169859663699754e-08,3.894421100616455078e+00,-1.667391695082187653e-02,-1.911821961402893066e-02
2.396000000000000000e+03,1.839999961853027344e+01,1.100000023841857910e+00,3.407231474739091936e-08,8.084366953653443488e-08,3.894455194473266602e+00,-1.669532991945743561e-02,-1.911295391619205475e-02
2.397000000000000000e+03,1.850000000000000000e+01,1.100000023841857910e+00,3.425800798595446395e-08,8.172039400733410730e-08,3.894494533538818359e+00,-1.671698130667209625e-02,-1.910928636789321899e-02
2.398000000000000000e+03,1.860000038146972656e+01,1.100000023841857910e+00,3.444370122451800853e-08,8.260187911446337239e-08,3.894539356231689453e+00,-1.673789881169795990e-02,-1.910855434834957123e-02
2.399000000000000000e+03,1.870000076293945312e+01,1.100000023841857910e+00,3.462939801579523191e-08,8.348811775249487255e-08,3.894590139389038086e+00,-1.675659790635108948e-02,-1.911192759871482849e-02
2.400000000000000000e+03,1.879999923706054688e+01,1.100000023841857910e+00,3.481509480707245530e-08,8.437909571057389257e-08,3.894646644592285156e+00,-1.677088439464569092e-02,-1.912039890885353088e-02
2.401000000000000000e+03,1.889999961853027344e+01,1.100000023841857910e+00,3.500079515106335748e-08,8.527484851583722048e-08,3.894708633422851562e+00,-1.677760854363441467e-02,-1.913663372397422791e-02
2.402000000000000000e+03,1.900000000000000000e+01,1.100000023841857910e+00,3.518650260048161726e-08,8.617535485200278345e-08,3.894775390625000000e+00,-1.677239313721656799e-02,-1.916095986962318420e-02
2.403000000000000000e+03,1.910000038146972656e+01,1.100000023841857910e+00,3.537221004989987705e-08,8.708061471907058149e-08,3.894845247268676758e+00,-1.674939878284931183e-02,-1.919490285217761993e-02
2.404000000000000000e+03,1.920000076293945312e+01,1.100000023841857910e+00,3.555792105203181563e-08,8.799063522246797220e-08,3.894915580749511719e+00,-1.670125685632228851e-02,-1.923873834311962128e-02
2.405000000000000000e+03,1.929999923706054688e+01,1.100000023841857910e+00,3.574363205416375422e-08,8.890538083505816758e-08,3.894983291625976562e+00,-1.661938987672328949e-02,-1.929077506065368652e-02
2.406000000000000000e+03,1.939999961853027344e+01,1.100000023841857910e+00,3.592934660900937160e-08,8.982490840026002843e-08,3.895044088363647461e+00,-1.649503968656063080e-02,-1.934839412569999695e-02
2.407000000000000000e+03,1.950000000000000000e+01,1.100000023841857910e+00,3.611506116385498899e-08,9.074918949636412435e-08,3.895093441009521484e+00,-1.632127724587917328e-02,-1.940343715250492096e-02
2.408000000000000000e+03,1.960000038146972656e+01,1.100000023841857910e+00,3.630077571870060638e-08,9.167822412337045535e-08,3.895128011703491211e+00,-1.609595865011215210e-02,-1.944586634635925293e-02
2.409000000000000000e+03,1.970000076293945312e+01,1.100000023841857910e+00,3.648648316811886616e-08,9.261201938670637901e-08,3.895145654678344727e+00,-1.582498475909233093e-02,-1.946275308728218079e-02
2.410000000000000000e+03,1.979999923706054688e+01,1.100000023841857910e+00,3.667218706482344714e-08,9.355056818094453774e-08,3.895147800445556641e+00,-1.552448607981204987e-02,-1.944065652787685394e-02
2.411000000000000000e+03,1.989999961853027344e+01,1.100000023841857910e+00,3.685788740881434933e-08,9.449389892779436195e-08,3.895139694213867188e+00,-1.522014662623405457e-02,-1.937105506658554077e-02
2.412000000000000000e+03,2.000000000000000000e+01,1.100000023841857910e+00,3.704358420009157271e-08,9.544200452182849403e-08,3.895129919052124023e+00,-1.494283229112625122e-02,-1.925004087388515472e-02
2.413000000000000000e+03,0.000000000000000000e+00,1.200000047683715820e+00,1.864886672161081923e-37,5.989781902391371519e-38,3.615299224853515625e+00,1.084589719772338867e+00,1.972604691982269287e-01
2.414000000000000000e+03,1.000000014901161194e-01,1.200000047683715820e+00,1.566629603821922956e-10,2.442272599434414104e-11,3.578811883926391602e+00,9.629653692245483398e-01,1.603540033102035522e-01
2.415000000000000000e+03,2.000000029802322388e-01,1.200000047683715820e+00,3.165886164335773856e-10,5.627970658950154359e-11,3.617194175720214844e+00,8.625184893608093262e-01,1.811767220497131348e-01
2.416000000000000000e+03,3.000000119209289551e-01,1.200000047683715820e+00,4.797250374721784283e-10,9.483306501190114091e-11,3.654865980148315430e+00,7.633377313613891602e-01,1.938265562057495117e-01
2.417000000000000000e+03,4.000000059604644775e-01,1.200000047683715820e+00,6.459340284870052074e-10,1.393393733728487405e-10,3.690752029418945312e+00,6.678767204284667969e-01,1.985681951045989990e-01
2.418000000000000000e+03,5.000000000000000000e-01,1.200000047683715820e+00,8.149987351657728141e-10,1.890931855541566620e-10,3.723830699920654297e+00,5.782390832901000977e-01,1.961821913719177246e-01
2.419000000000000000e+03,6.000000238418579102e-01,1.200000047683715820e+00,9.866411021519638780e-10,2.434638046722170657e-10,3.753273963928222656e+00,4.959533512592315674e-01,1.878355741500854492e-01
2.420000000000000000e+03,6.999999880790710449e-01,1.200000047683715820e+00,1.160544549350106536e-09,3.019202110543517392e-10,3.778542041778564453e+00,4.218933582305908203e-01,1.749010831117630005e-01
2.421000000000000000e+03,8.000000119209289551e-01,1.200000047683715820e+00,1.336378785410374803e-09,3.640426293749499109e-10,3.799415826797485352e+00,3.563258647918701172e-01,1.587772369384765625e-01
2.422000000000000000e+03,8.999999761581420898e-01,1.200000047683715820e+00,1.513819625209578135e-09,4.295215016991704715e-10,3.815970182418823242e+00,2.990383505821228027e-01,1.407479643821716309e-01
2.423000000000000000e+03,1.000000000000000000e+00,1.200000047683715820e+00,1.692565421151925875e-09,4.981483558985644322e-10,3.828508615493774414e+00,2.494918853044509888e-01,1.218968853354454041e-01
2.424000000000000000e+03,1.100000023841857910e+00,1.200000047683715820e+00,1.872346055975526724e-09,5.698008176402424851e-10,3.837484121322631836e+00,2.069629132747650146e-01,1.030740961432456970e-01
2.425000000000000000e+03,1.200000047683715820e+00,1.200000047683715820e+00,2.052928493867511861e-09,6.444264566418667073e-10,3.843421936035156250e+00,1.706538200378417969e-01,8.490104228258132935e-02
2.426000000000000000e+03,1.299999952316284180e+00,1.200000047683715820e+00,2.234115337174102933e-09,7.220266606822178801e-10,3.846859931945800781e+00,1.397690027952194214e-01,6.779841333627700806e-02
2.427000000000000000e+03,1.399999976158142090e+00,1.200000047683715820e+00,2.415745825601334218e-09,8.026429521024169844e-10,3.848306179046630859e+00,1.135606095194816589e-01,5.202316120266914368e-02
2.428000000000000000e+03,1.500000000000000000e+00,1.200000047683715820e+00,2.597689174876904872e-09,8.863442202411420112e-10,3.848215579986572266e+00,9.135258197784423828e-02,3.770689666271209717e-02
2.429000000000000000e+03,1.600000023841857910e+00,1.200000047683715820e+00,2.779842134259524755e-09,9.732180616950358854e-10,3.846978902816772461e+00,7.254904508590698242e-02,2.488955855369567871e-02
2.430000000000000000e+03,1.700000047683715820e+00,1.200000047683715820e+00,2.962124767691420857e-09,1.063362953246382858e-09,3.844920635223388672e+00,5.663399398326873779e-02,1.354754529893398285e-02
2.431000000000000000e+03,1.799999952316284180e+00,1.200000047683715820e+00,3.144474680638609243e-09,1.156882811770287844e-09,3.842303991317749023e+00,4.316580668091773987e-02,3.615551395341753960e-03
2.432000000000000000e+03,1.899999976158142090e+00,1.200000047683715820e+00,3.326846353957080282e-09,1.253883552543300084e-09,3.839336872100830078e+00,3.176940977573394775e-02,-4.997277632355690002e-03
2.433000000000000000e+03,2.000000000000000000e+00,1.200000047683715820e+00,3.509205592777675520e-09,1.354469203462826954e-09,3.836180210113525391e+00,2.212790958583354950e-02,-1.239531487226486206e-02
2.434000000000000000e+03,2.099999904632568359e+00,1.200000047683715820e+00,3.691527528104643352e-09,1.458740683801806881e-09,3.832956075668334961e+00,1.397426519542932510e-02,-1.868845708668231964e-02
2.435000000000000000e+03,2.200000047683715820e+00,1.200000047683715820e+00,3.873795950681824252e-09,1.566794916030289642e-09,3.829754590988159180e+00,7.083687931299209595e-03,-2.398662641644477844e-02
2.436000000000000000e+03,2.299999952316284180e+00,1.200000047683715820e+00,4.055998648055947342e-09,1.678722494347084648e-09,3.826640367507934570e+00,1.267061103135347366e-03,-2.839582599699497223e-02
2.437000000000000000e+03,2.400000095367431641e+00,1.200000047683715820e+00,4.238129847067284572e-09,1.794609350014297888e-09,3.823658466339111328e+00,-3.634968772530555725e-03,-3.201656043529510498e-02
2.438000000000000000e+03,2.500000000000000000e+00,1.200000047683715820e+00,4.420185106823737442e-09,1.914534308866677748e-09,3.820837736129760742e+00,-7.756783161312341690e-03,-3.494192287325859070e-02
2.439000000000000000e+03,2.599999904632568359e+00,1.200000047683715820e+00,4.602163983236096101e-09,2.038571533802269187e-09,3.818195819854736328e+00,-1.121200434863567352e-02,-3.725771605968475342e-02
2.440000000000000000e+03,2.700000047683715820e+00,1.200000047683715820e+00,4.784067364482780249e-09,2.166788526380969415e-09,3.815741300582885742e+00,-1.409690082073211670e-02,-3.904192149639129639e-02
2.441000000000000000e+03,2.799999952316284180e+00,1.200000047683715820e+00,4.965897026920629287e-09,2.299247237047552517e-09,3.813476085662841797e+00,-1.649324037134647369e-02,-4.036486521363258362e-02
2.442000000000000000e+03,2.900000095367431641e+00,1.200000047683715820e+00,5.147656079174112165e-09,2.436005175354694074e-09,3.811397314071655273e+00,-1.847069524228572845e-02,-4.129002243280410767e-02
2.443000000000000000e+03,3.000000000000000000e+00,1.200000047683715820e+00,5.329347629867697833e-09,2.577113633606131771e-09,3.809499025344848633e+00,-2.008877508342266083e-02,-4.187381640076637268e-02
2.444000000000000000e+03,3.099999904632568359e+00,1.200000047683715820e+00,5.510975675804274942e-09,2.722619907302714637e-09,3.807772636413574219e+00,-2.139847166836261749e-02,-4.216678440570831299e-02
2.445000000000000000e+03,3.200000047683715820e+00,1.200000047683715820e+00,5.692544657875941994e-09,2.872567073097798129e-09,3.806208372116088867e+00,-2.244359254837036133e-02,-4.221365600824356079e-02
2.446000000000000000e+03,3.299999952316284180e+00,1.200000047683715820e+00,5.874057684707167937e-09,3.026993544708034278e-09,3.804795742034912109e+00,-2.326186373829841614e-02,-4.205384477972984314e-02
2.447000000000000000e+03,3.400000095367431641e+00,1.200000047683715820e+00,6.055519197190051273e-09,3.185934849270211089e-09,3.803524017333984375e+00,-2.388586476445198059e-02,-4.172240197658538818e-02
2.448000000000000000e+03,3.500000000000000000e+00,1.200000047683715820e+00,6.236932748038270802e-09,3.349421850984413140e-09,3.802381992340087891e+00,-2.434379048645496368e-02,-4.124980419874191284e-02
2.449000000000000000e+03,3.599999904632568359e+00,1.200000047683715820e+00,6.418301889965505325e-09,3.517482971560070837e-09,3.801359176635742188e+00,-2.466008812189102173e-02,-4.066304117441177368e-02
2.450000000000000000e+03,3.700000047683715820e+00,1.200000047683715820e+00,6.599630619774643492e-09,3.690144412260565332e-09,3.800445318222045898e+00,-2.485599368810653687e-02,-3.998556360602378845e-02
2.451000000000000000e+03,3.799999952316284180e+00,1.200000047683715820e+00,6.780922046090154254e-09,3.867428155501784204e-09,3.799630403518676758e+00,-2.494997344911098480e-02,-3.923765197396278381e-02
2.452000000000000000e+03,3.900000095367431641e+00,1.200000047683715820e+00,6.962178833447296711e-09,4.049354629387380555e-09,3.798905611038208008e+00,-2.495810948312282562e-02,-3.843717649579048157e-02
2.453000000000000000e+03,4.000000000000000000e+00,1.200000047683715820e+00,7.143404090470539813e-09,4.235942263619563164e-09,3.798262357711791992e+00,-2.489440888166427612e-02,-3.759923577308654785e-02
2.454000000000000000e+03,4.099999904632568359e+00,1.200000047683715820e+00,7.324600037605932812e-09,4.427206601320676782e-09,3.797692537307739258e+00,-2.477107755839824677e-02,-3.673709183931350708e-02
2.455000000000000000e+03,4.199999809265136719e+00,1.200000047683715820e+00,7.505770227567154507e-09,4.623161853345436612e-09,3.797189235687255859e+00,-2.459875121712684631e-02,-3.586190938949584961e-02
2.456000000000000000e+03,4.300000190734863281e+00,1.200000047683715820e+00,7.686916880800254148e-09,4.823822230548557854e-09,3.796745061874389648e+00,-2.438668906688690186e-02,-3.498329222202301025e-02
2.457000000000000000e+03,4.400000095367431641e+00,1.200000047683715820e+00,7.868039553216021886e-09,5.029196170625027662e-09,3.796354532241821289e+00,-2.414294891059398651e-02,-3.410900384187698364e-02
2.458000000000000000e+03,4.500000000000000000e+00,1.200000047683715820e+00,8.049143573884975922e-09,5.239294331715882436e-09,3.796011924743652344e+00,-2.387451939284801483e-02,-3.324600681662559509e-02
2.459000000000000000e+03,4.599999904632568359e+00,1.200000047683715820e+00,8.230228054628696555e-09,5.454125595605319177e-09,3.795711755752563477e+00,-2.358746528625488281e-02,-3.239975497126579285e-02
2.460000000000000000e+03,4.699999809265136719e+00,1.200000047683715820e+00,8.411296548160862585e-09,5.673697067720695486e-09,3.795449972152709961e+00,-2.328702062368392944e-02,-3.157476335763931274e-02
2.461000000000000000e+03,4.800000190734863281e+00,1.200000047683715820e+00,8.592349942659893713e-09,5.898016297578578815e-09,3.795222043991088867e+00,-2.297769486904144287e-02,-3.077472932636737823e-02
2.462000000000000000e+03,4.900000095367431641e+00,1.200000047683715820e+00,8.773389126304209640e-09,6.127086393803438114e-09,3.795024394989013672e+00,-2.266335859894752502e-02,-3.000222891569137573e-02
2.463000000000000000e+03,5.000000000000000000e+00,1.200000047683715820e+00,8.954415875450649764e-09,6.360913573644211283e-09,3.794853687286376953e+00,-2.234731055796146393e-02,-2.925968356430530548e-02
2.464000000000000000e+03,5.099999904632568359e+00,1.200000047683715820e+00,9.135431078277633787e-09,6.599500945725367274e-09,3.794706821441650391e+00,-2.203235030174255371e-02,-2.854857034981250763e-02
2.465000000000000000e+03,5.199999809265136719e+00,1.200000047683715820e+00,9.316434734785161709e-09,6.842852062760584886e-09,3.794580936431884766e+00,-2.172083035111427307e-02,-2.786994166672229767e-02
2.466000000000000000e+03,5.300000190734863281e+00,1.200000047683715820e+00,9.497431285865332029e-09,7.090971365641962620e-09,3.794473409652709961e+00,-2.141471207141876221e-02,-2.722450159490108490e-02
2.467000000000000000e+03,5.400000095367431641e+00,1.200000047683715820e+00,9.678417178804465948e-09,7.343858410280290627e-09,3.794382572174072266e+00,-2.111562155187129974e-02,-2.661222591996192932e-02
2.468000000000000000e+03,5.500000000000000000e+00,1.200000047683715820e+00,9.859395966316242266e-09,7.601516749389247707e-09,3.794306039810180664e+00,-2.082486823201179504e-02,-2.603331208229064941e-02
2.469000000000000000e+03,5.599999904632568359e+00,1.200000047683715820e+00,1.004036764840066098e-08,7.863945938879624009e-09,3.794242382049560547e+00,-2.054350078105926514e-02,-2.548733167350292206e-02
2.470000000000000000e+03,5.699999809265136719e+00,1.200000047683715820e+00,1.022133222505772210e-08,8.131149975554308185e-09,3.794189691543579102e+00,-2.027233503758907318e-02,-2.497372217476367950e-02
2.471000000000000000e+03,5.800000190734863281e+00,1.200000047683715820e+00,1.040229236082268471e-08,8.403128859413300233e-09,3.794146537780761719e+00,-2.001197636127471924e-02,-2.449182607233524323e-02
2.472000000000000000e+03,5.900000095367431641e+00,1.200000047683715820e+00,1.058324716751712913e-08,8.679880814099760755e-09,3.794111967086791992e+00,-1.976286247372627258e-02,-2.404048852622509003e-02
2.473000000000000000e+03,6.000000000000000000e+00,1.200000047683715820e+00,1.076419664514105534e-08,8.961408504148948850e-09,3.794084787368774414e+00,-1.952526904642581940e-02,-2.361896634101867676e-02
2.474000000000000000e+03,6.099999904632568359e+00,1.200000047683715820e+00,1.094514168187288305e-08,9.247710153204025119e-09,3.794063806533813477e+00,-1.929934136569499969e-02,-2.322607487440109253e-02
2.475000000000000000e+03,6.199999809265136719e+00,1.200000047683715820e+00,1.112608316589103197e-08,9.538788425800248660e-09,3.794048309326171875e+00,-1.908511109650135040e-02,-2.286064811050891876e-02
2.476000000000000000e+03,6.300000190734863281e+00,1.200000047683715820e+00,1.130702198537392178e-08,9.834642433759199776e-09,3.794037580490112305e+00,-1.888251118361949921e-02,-2.252155914902687073e-02
2.477000000000000000e+03,6.400000095367431641e+00,1.200000047683715820e+00,1.148795725214313279e-08,1.013526951254561936e-08,3.794030904769897461e+00,-1.869139634072780609e-02,-2.220729738473892212e-02
2.478000000000000000e+03,6.500000000000000000e+00,1.200000047683715820e+00,1.166888896619866500e-08,1.044067143851634683e-08,3.794027566909790039e+00,-1.851154863834381104e-02,-2.191687189042568207e-02
2.479000000000000000e+03,6.599999904632568359e+00,1.200000047683715820e+00,1.184981890389735781e-08,1.075084732349296246e-08,3.794027090072631836e+00,-1.834269985556602478e-02,-2.164893597364425659e-02
2.480000000000000000e+03,6.699999809265136719e+00,1.200000047683715820e+00,1.203074706523921122e-08,1.106579716747546627e-08,3.794028997421264648e+00,-1.818452775478363037e-02,-2.140223979949951172e-02
2.481000000000000000e+03,6.800000190734863281e+00,1.200000047683715820e+00,1.221167345022422523e-08,1.138552097046385825e-08,3.794032812118530273e+00,-1.803667843341827393e-02,-2.117563225328922272e-02
2.482000000000000000e+03,6.900000095367431641e+00,1.200000047683715820e+00,1.239259717067398014e-08,1.171001606792287930e-08,3.794038295745849609e+00,-1.789877191185951233e-02,-2.096763812005519867e-02
2.483000000000000000e+03,7.000000000000000000e+00,1.200000047683715820e+00,1.257352000294531535e-08,1.203928245985252943e-08,3.794045209884643555e+00,-1.777040213346481323e-02,-2.077734656631946564e-02
2.484000000000000000e+03,7.099999904632568359e+00,1.200000047683715820e+00,1.275444105885981116e-08,1.237332103443122833e-08,3.794053077697753906e+00,-1.765115000307559967e-02,-2.060353010892868042e-02
2.485000000000000000e+03,7.199999809265136719e+00,1.200000047683715820e+00,1.293536122659588727e-08,1.271213001530213660e-08,3.794061660766601562e+00,-1.754058711230754852e-02,-2.044508792459964752e-02
2.486000000000000000e+03,7.300000190734863281e+00,1.200000047683715820e+00,1.311628050615354368e-08,1.305571029064367394e-08,3.794070959091186523e+00,-1.743828319013118744e-02,-2.030104212462902069e-02
2.487000000000000000e+03,7.400000095367431641e+00,1.200000047683715820e+00,1.329719889753278039e-08,1.340405830774216156e-08,3.794080495834350586e+00,-1.734380424022674561e-02,-2.017011493444442749e-02
2.488000000000000000e+03,7.500000000000000000e+00,1.200000047683715820e+00,1.347811640073359740e-08,1.375717495477601915e-08,3.794090270996093750e+00,-1.725671999156475067e-02,-2.005160413682460785e-02
2.489000000000000000e+03,7.599999904632568359e+00,1.200000047683715820e+00,1.365903301575599471e-08,1.411506023174524671e-08,3.794100284576416016e+00,-1.717660762369632721e-02,-1.994450204074382782e-02
2.490000000000000000e+03,7.699999809265136719e+00,1.200000047683715820e+00,1.383994874259997232e-08,1.447771325047142454e-08,3.794110536575317383e+00,-1.710305176675319672e-02,-1.984793879091739655e-02
2.491000000000000000e+03,7.800000190734863281e+00,1.200000047683715820e+00,1.402086535762236963e-08,1.484513489913297235e-08,3.794120311737060547e+00,-1.703564636409282684e-02,-1.976117305457592010e-02
2.492000000000000000e+03,7.900000095367431641e+00,1.200000047683715820e+00,1.420178019628792754e-08,1.521732251319463103e-08,3.794130325317382812e+00,-1.697400026023387909e-02,-1.968315616250038147e-02
2.493000000000000000e+03,8.000000000000000000e+00,1.200000047683715820e+00,1.438269503495348545e-08,1.559427431629956118e-08,3.794139862060546875e+00,-1.691773161292076111e-02,-1.961342617869377136e-02
2.494000000000000000e+03,8.100000381469726562e+00,1.200000047683715820e+00,1.456361076179746306e-08,1.597599386116144160e-08,3.794149160385131836e+00,-1.686647534370422363e-02,-1.955130137503147125e-02
2.495000000000000000e+03,8.199999809265136719e+00,1.200000047683715820e+00,1.474452471228460126e-08,1.636247581870975409e-08,3.794158220291137695e+00,-1.681988313794136047e-02,-1.949576847255229950e-02
2.496000000000000000e+03,8.300000190734863281e+00,1.200000047683715820e+00,1.492543866277173947e-08,1.675372551801501686e-08,3.794167041778564453e+00,-1.677761971950531006e-02,-1.944686658680438995e-02
2.497000000000000000e+03,8.399999618530273438e+00,1.200000047683715820e+00,1.510635172508045798e-08,1.714973585364987230e-08,3.794175386428833008e+00,-1.673936843872070312e-02,-1.940330490469932556e-02
2.498000000000000000e+03,8.500000000000000000e+00,1.200000047683715820e+00,1.528726656374601589e-08,1.755051393104167801e-08,3.794183492660522461e+00,-1.670482382178306580e-02,-1.936529204249382019e-02
2.499000000000000000e+03,8.600000381469726562e+00,1.200000047683715820e+00,1.546818140241157380e-08,1.795605442111991579e-08,3.794191122055053711e+00,-1.667369902133941650e-02,-1.933179609477519989e-02
2.500000000000000000e+03,8.699999809265136719e+00,1.200000047683715820e+00,1.564909446472029231e-08,1.836635377117090684e-08,3.794198274612426758e+00,-1.664572767913341522e-02,-1.930237002670764923e-02
2.501000000000000000e+03,8.800000190734863281e+00,1.200000047683715820e+00,1.583000930338585022e-08,1.878142086297884816e-08,3.794205188751220703e+00,-1.662065275013446808e-02,-1.927714608609676361e-02
2.502000000000000000e+03,8.899999618530273438e+00,1.200000047683715820e+00,1.601092236569456873e-08,1.920124681475954276e-08,3.794211626052856445e+00,-1.659823395311832428e-02,-1.925501413643360138e-02
2.503000000000000000e+03,9.000000000000000000e+00,1.200000047683715820e+00,1.619183720436012663e-08,1.962583873194034823e-08,3.794217824935913086e+00,-1.657824777066707611e-02,-1.923635043203830719e-02
2.504000000000000000e+03,9.100000381469726562e+00,1.200000047683715820e+00,1.637275204302568454e-08,2.005519128545074636e-08,3.794223546981811523e+00,-1.656048372387886047e-02,-1.922028325498104095e-02
2.505000000000000000e+03,9.199999809265136719e+00,1.200000047683715820e+00,1.655366332897756365e-08,2.048930269893389777e-08,3.794228792190551758e+00,-1.654474809765815735e-02,-1.920652016997337341e-02
2.506000000000000000e+03,9.300000190734863281e+00,1.200000047683715820e+00,1.673457816764312156e-08,2.092817830146032065e-08,3.794233798980712891e+00,-1.653085462749004364e-02,-1.919533312320709229e-02
2.507000000000000000e+03,9.399999618530273438e+00,1.200000047683715820e+00,1.691549122995184007e-08,2.137181276395949681e-08,3.794238567352294922e+00,-1.651863753795623779e-02,-1.918574608862400055e-02
2.508000000000000000e+03,9.500000000000000000e+00,1.200000047683715820e+00,1.709640606861739798e-08,2.182020963914510503e-08,3.794242858886718750e+00,-1.650793850421905518e-02,-1.917826384305953979e-02
2.509000000000000000e+03,9.600000381469726562e+00,1.200000047683715820e+00,1.727732090728295589e-08,2.227336892701714532e-08,3.794246912002563477e+00,-1.649861037731170654e-02,-1.917213387787342072e-02
2.510000000000000000e+03,9.699999809265136719e+00,1.200000047683715820e+00,1.745823396959167439e-08,2.273128529850509949e-08,3.794250726699829102e+00,-1.649051904678344727e-02,-1.916716806590557098e-02
2.511000000000000000e+03,9.800000190734863281e+00,1.200000047683715820e+00,1.763914880825723230e-08,2.319396585903632513e-08,3.794254302978515625e+00,-1.648354157805442810e-02,-1.916374452412128448e-02
2.512000000000000000e+03,9.899999618530273438e+00,1.200000047683715820e+00,1.782006187056595081e-08,2.366140172682662524e-08,3.794257402420043945e+00,-1.647756434977054596e-02,-1.916098408401012421e-02
2.513000000000000000e+03,1.000000000000000000e+01,1.200000047683715820e+00,1.800097848558834812e-08,2.413360178366019682e-08,3.794260263442993164e+00,-1.647247932851314545e-02,-1.915947720408439636e-02
2.514000000000000000e+03,1.010000038146972656e+01,1.200000047683715820e+00,1.818189332425390603e-08,2.461056247682336107e-08,3.794263124465942383e+00,-1.646819524466991425e-02,-1.915855519473552704e-02
2.515000000000000000e+03,1.019999980926513672e+01,1.200000047683715820e+00,1.836280638656262454e-08,2.509227847724559979e-08,3.794265508651733398e+00,-1.646461896598339081e-02,-1.915809325873851776e-02
2.516000000000000000e+03,1.030000019073486328e+01,1.200000047683715820e+00,1.854372122522818245e-08,2.557875866671110998e-08,3.794267892837524414e+00,-1.646167598664760590e-02,-1.915857009589672089e-02
2.517000000000000000e+03,1.039999961853027344e+01,1.200000047683715820e+00,1.872463606389374036e-08,2.606999416343569465e-08,3.794269800186157227e+00,-1.645928807556629181e-02,-1.915912888944149017e-02
2.518000000000000000e+03,1.050000000000000000e+01,1.200000047683715820e+00,1.890555090255929827e-08,2.656599384920355078e-08,3.794271707534790039e+00,-1.645739190280437469e-02,-1.916046068072319031e-02
2.519000000000000000e+03,1.060000038146972656e+01,1.200000047683715820e+00,1.908646574122485617e-08,2.706675417130099959e-08,3.794273614883422852e+00,-1.645592786371707916e-02,-1.916191726922988892e-02
2.520000000000000000e+03,1.069999980926513672e+01,1.200000047683715820e+00,1.926738057989041408e-08,2.757226802430068346e-08,3.794275045394897461e+00,-1.645483821630477905e-02,-1.916343905031681061e-02
2.521000000000000000e+03,1.080000019073486328e+01,1.200000047683715820e+00,1.944829541855597199e-08,2.808254606634363881e-08,3.794276475906372070e+00,-1.645407639443874359e-02,-1.916554756462574005e-02
2.522000000000000000e+03,1.089999961853027344e+01,1.200000047683715820e+00,1.962920848086469050e-08,2.859757941564566863e-08,3.794277667999267578e+00,-1.645359769463539124e-02,-1.916742697358131409e-02
2.523000000000000000e+03,1.100000000000000000e+01,1.200000047683715820e+00,1.981012509588708781e-08,2.911737517763413052e-08,3.794278860092163086e+00,-1.645336113870143890e-02,-1.916980557143688202e-02
2.524000000000000000e+03,1.110000038146972656e+01,1.200000047683715820e+00,1.999104171090948512e-08,2.964193335230902449e-08,3.794280052185058594e+00,-1.645333133637905121e-02,-1.917206868529319763e-02
2.525000000000000000e+03,1.119999980926513672e+01,1.200000047683715820e+00,2.017195477321820363e-08,3.017124328152931412e-08,3.794281005859375000e+00,-1.645347848534584045e-02,-1.917418651282787323e-02
2.526000000000000000e+03,1.130000019073486328e+01,1.200000047683715820e+00,2.035287138824060094e-08,3.070531917614971462e-08,3.794281721115112305e+00,-1.645377278327941895e-02,-1.917670853435993195e-02
2.527000000000000000e+03,1.139999961853027344e+01,1.200000047683715820e+00,2.053378445054931944e-08,3.124414860167235020e-08,3.794282436370849609e+00,-1.645418629050254822e-02,-1.917884498834609985e-02
2.528000000000000000e+03,1.150000000000000000e+01,1.200000047683715820e+00,2.071470106557171675e-08,3.178774221623825724e-08,3.794283151626586914e+00,-1.645470038056373596e-02,-1.918134279549121857e-02
2.529000000000000000e+03,1.160000038146972656e+01,1.200000047683715820e+00,2.089561590423727466e-08,3.233609291442007816e-08,3.794283866882324219e+00,-1.645529456436634064e-02,-1.918361149728298187e-02
2.530000000000000000e+03,1.169999980926513672e+01,1.200000047683715820e+00,2.107653074290283257e-08,3.288920069621781295e-08,3.794284343719482422e+00,-1.645595021545886993e-02,-1.918563619256019592e-02
2.531000000000000000e+03,1.180000019073486328e+01,1.200000047683715820e+00,2.125744735792522988e-08,3.344706911434514041e-08,3.794284820556640625e+00,-1.645665429532527924e-02,-1.918798498809337616e-02
2.532000000000000000e+03,1.189999961853027344e+01,1.200000047683715820e+00,2.143836042023394839e-08,3.400969461608838174e-08,3.794285058975219727e+00,-1.645739004015922546e-02,-1.918987743556499481e-02
2.533000000000000000e+03,1.200000000000000000e+01,1.200000047683715820e+00,2.161927703525634570e-08,3.457708430687489454e-08,3.794285535812377930e+00,-1.645814999938011169e-02,-1.919207908213138580e-02
2.534000000000000000e+03,1.210000038146972656e+01,1.200000047683715820e+00,2.180019365027874301e-08,3.514923108127732121e-08,3.794285774230957031e+00,-1.645892113447189331e-02,-1.919400878250598907e-02
2.535000000000000000e+03,1.219999980926513672e+01,1.200000047683715820e+00,2.198110848894430092e-08,3.572613493929566175e-08,3.794286012649536133e+00,-1.645969599485397339e-02,-1.919565908610820770e-02
2.536000000000000000e+03,1.230000019073486328e+01,1.200000047683715820e+00,2.216202332760985882e-08,3.630779943364359497e-08,3.794286251068115234e+00,-1.646046712994575500e-02,-1.919760555028915405e-02
2.537000000000000000e+03,1.239999961853027344e+01,1.200000047683715820e+00,2.234293816627541673e-08,3.689422101160744205e-08,3.794286489486694336e+00,-1.646123081445693970e-02,-1.919908076524734497e-02
2.538000000000000000e+03,1.250000000000000000e+01,1.200000047683715820e+00,2.252385478129781404e-08,3.748540322590088181e-08,3.794286727905273438e+00,-1.646197959780693054e-02,-1.920085214078426361e-02
2.539000000000000000e+03,1.260000038146972656e+01,1.200000047683715820e+00,2.270477139632021135e-08,3.808134607652391423e-08,3.794286727905273438e+00,-1.646270975470542908e-02,-1.920234225690364838e-02
2.540000000000000000e+03,1.269999980926513672e+01,1.200000047683715820e+00,2.288568445862892986e-08,3.868204601076286053e-08,3.794286966323852539e+00,-1.646341755986213684e-02,-1.920355297625064850e-02
2.541000000000000000e+03,1.280000019073486328e+01,1.200000047683715820e+00,2.306660107365132717e-08,3.928750658133139950e-08,3.794286966323852539e+00,-1.646410301327705383e-02,-1.920506358146667480e-02
2.542000000000000000e+03,1.289999961853027344e+01,1.200000047683715820e+00,2.324751591231688508e-08,3.989772068280217354e-08,3.794286966323852539e+00,-1.646476052701473236e-02,-1.920610666275024414e-02
2.543000000000000000e+03,1.300000000000000000e+01,1.200000047683715820e+00,2.342843252733928239e-08,4.051269897331621905e-08,3.794286966323852539e+00,-1.646539010107517242e-02,-1.920745335519313812e-02
2.544000000000000000e+03,1.310000038146972656e+01,1.200000047683715820e+00,2.360934914236167970e-08,4.113243790015985724e-08,3.794287204742431641e+00,-1.646599359810352325e-02,-1.920852996408939362e-02
2.545000000000000000e+03,1.319999980926513672e+01,1.200000047683715820e+00,2.379026220467039821e-08,4.175693035790573049e-08,3.794287204742431641e+00,-1.646656543016433716e-02,-1.920933835208415985e-02
2.546000000000000000e+03,1.330000019073486328e+01,1.200000047683715820e+00,2.397117881969279551e-08,4.238618700469487521e-08,3.794287204742431641e+00,-1.646711118519306183e-02,-1.921046152710914612e-02
2.547000000000000000e+03,1.339999961853027344e+01,1.200000047683715820e+00,2.415209365835835342e-08,4.302019718238625501e-08,3.794287204742431641e+00,-1.646762713789939880e-02,-1.921113021671772003e-02
2.548000000000000000e+03,1.350000000000000000e+01,1.200000047683715820e+00,2.433301027338075073e-08,4.365897154912090627e-08,3.794287204742431641e+00,-1.646811515092849731e-02,-1.921211928129196167e-02
2.549000000000000000e+03,1.360000038146972656e+01,1.200000047683715820e+00,2.451392688840314804e-08,4.430250655218515021e-08,3.794287204742431641e+00,-1.646857522428035736e-02,-1.921285316348075867e-02
2.550000000000000000e+03,1.369999980926513672e+01,1.200000047683715820e+00,2.469484172706870595e-08,4.495079508615162922e-08,3.794286966323852539e+00,-1.646901108324527740e-02,-1.921333558857440948e-02
2.551000000000000000e+03,1.380000019073486328e+01,1.200000047683715820e+00,2.487575656573426386e-08,4.560384425644770090e-08,3.794286966323852539e+00,-1.646942272782325745e-02,-1.921414770185947418e-02
2.552000000000000000e+03,1.389999961853027344e+01,1.200000047683715820e+00,2.505667140439982177e-08,4.626165051035968645e-08,3.794286966323852539e+00,-1.646981202065944672e-02,-1.921452209353446960e-02
2.553000000000000000e+03,1.400000000000000000e+01,1.200000047683715820e+00,2.523758801942221908e-08,4.692422095331494347e-08,3.794286966323852539e+00,-1.647018268704414368e-02,-1.921522989869117737e-02
2.554000000000000000e+03,1.410000038146972656e+01,1.200000047683715820e+00,2.541850463444461639e-08,4.759155203259979316e-08,3.794286966323852539e+00,-1.647053286433219910e-02,-1.921569742262363434e-02
2.555000000000000000e+03,1.419999980926513672e+01,1.200000047683715820e+00,2.559941947311017429e-08,4.826363309007319913e-08,3.794286966323852539e+00,-1.647087000310420990e-02,-1.921592652797698975e-02
2.556000000000000000e+03,1.430000019073486328e+01,1.200000047683715820e+00,2.578033608813257160e-08,4.894047833658987656e-08,3.794286727905273438e+00,-1.647119596600532532e-02,-1.921649836003780365e-02
2.557000000000000000e+03,1.439999961853027344e+01,1.200000047683715820e+00,2.596124915044129011e-08,4.962208066672246787e-08,3.794286727905273438e+00,-1.647151261568069458e-02,-1.921664178371429443e-02
2.558000000000000000e+03,1.450000000000000000e+01,1.200000047683715820e+00,2.614216576546368742e-08,5.030844718589833064e-08,3.794286727905273438e+00,-1.647182367742061615e-02,-1.921712979674339294e-02
2.559000000000000000e+03,1.460000038146972656e+01,1.200000047683715820e+00,2.632308238048608473e-08,5.099957078869010729e-08,3.794286727905273438e+00,-1.647213660180568695e-02,-1.921738684177398682e-02
2.560000000000000000e+03,1.469999980926513672e+01,1.200000047683715820e+00,2.650399721915164264e-08,5.169544792238411901e-08,3.794286727905273438e+00,-1.647245511412620544e-02,-1.921741291880607605e-02
2.561000000000000000e+03,1.480000019073486328e+01,1.200000047683715820e+00,2.668491383417403995e-08,5.239608924512140220e-08,3.794286727905273438e+00,-1.647278293967247009e-02,-1.921778544783592224e-02
2.562000000000000000e+03,1.489999961853027344e+01,1.200000047683715820e+00,2.686582867283959786e-08,5.310148409876092046e-08,3.794286489486694336e+00,-1.647312939167022705e-02,-1.921773515641689301e-02
2.563000000000000000e+03,1.500000000000000000e+01,1.200000047683715820e+00,2.704674528786199517e-08,5.381164669415738899e-08,3.794286489486694336e+00,-1.647350192070007324e-02,-1.921802759170532227e-02
2.564000000000000000e+03,1.510000038146972656e+01,1.200000047683715820e+00,2.722766012652755307e-08,5.452656637316977140e-08,3.794286489486694336e+00,-1.647390611469745636e-02,-1.921808719635009766e-02
2.565000000000000000e+03,1.519999980926513672e+01,1.200000047683715820e+00,2.740857496519311098e-08,5.524623958308438887e-08,3.794286489486694336e+00,-1.647435314953327179e-02,-1.921791210770606995e-02
2.566000000000000000e+03,1.530000019073486328e+01,1.200000047683715820e+00,2.758949158021550829e-08,5.597067698204227781e-08,3.794286727905273438e+00,-1.647485420107841492e-02,-1.921807415783405304e-02
2.567000000000000000e+03,1.539999961853027344e+01,1.200000047683715820e+00,2.777040641888106620e-08,5.669986791190240183e-08,3.794286727905273438e+00,-1.647542230784893036e-02,-1.921780221164226532e-02
2.568000000000000000e+03,1.550000000000000000e+01,1.200000047683715820e+00,2.795132303390346351e-08,5.743382303080579732e-08,3.794286966323852539e+00,-1.647606864571571350e-02,-1.921785995364189148e-02
2.569000000000000000e+03,1.560000038146972656e+01,1.200000047683715820e+00,2.813223964892586082e-08,5.817253878603878547e-08,3.794286966323852539e+00,-1.647681370377540588e-02,-1.921766437590122223e-02
2.570000000000000000e+03,1.569999980926513672e+01,1.200000047683715820e+00,2.831315448759141873e-08,5.891600807217400870e-08,3.794287204742431641e+00,-1.647767238318920135e-02,-1.921720989048480988e-02
2.571000000000000000e+03,1.580000019073486328e+01,1.200000047683715820e+00,2.849407110261381604e-08,5.966423799463882460e-08,3.794287681579589844e+00,-1.647866703569889069e-02,-1.921706274151802063e-02
2.572000000000000000e+03,1.589999961853027344e+01,1.200000047683715820e+00,2.867498594127937395e-08,6.041722855343323317e-08,3.794288158416748047e+00,-1.647982001304626465e-02,-1.921644806861877441e-02
2.573000000000000000e+03,1.600000000000000000e+01,1.200000047683715820e+00,2.885590255630177126e-08,6.117497974855723442e-08,3.794288635253906250e+00,-1.648115925490856171e-02,-1.921612210571765900e-02
2.574000000000000000e+03,1.610000038146972656e+01,1.200000047683715820e+00,2.903681917132416856e-08,6.193749158001082833e-08,3.794289350509643555e+00,-1.648271270096302032e-02,-1.921549625694751740e-02
2.575000000000000000e+03,1.620000076293945312e+01,1.200000047683715820e+00,2.921773578634656587e-08,6.270475694236665731e-08,3.794290065765380859e+00,-1.648451387882232666e-02,-1.921474747359752655e-02
2.576000000000000000e+03,1.629999923706054688e+01,1.200000047683715820e+00,2.939864884865528438e-08,6.347677583562472137e-08,3.794291257858276367e+00,-1.648660004138946533e-02,-1.921347714960575104e-02
2.577000000000000000e+03,1.639999961853027344e+01,1.200000047683715820e+00,2.957956546367768169e-08,6.425356247063973569e-08,3.794292449951171875e+00,-1.648901589214801788e-02,-1.921282149851322174e-02
2.578000000000000000e+03,1.650000000000000000e+01,1.200000047683715820e+00,2.976048207870007900e-08,6.503510974198434269e-08,3.794294118881225586e+00,-1.649180427193641663e-02,-1.921160705387592316e-02
2.579000000000000000e+03,1.660000038146972656e+01,1.200000047683715820e+00,2.994140047007931571e-08,6.582141764965854236e-08,3.794296026229858398e+00,-1.649501733481884003e-02,-1.921019889414310455e-02
2.580000000000000000e+03,1.670000076293945312e+01,1.200000047683715820e+00,3.012231530874487362e-08,6.661248619366233470e-08,3.794298410415649414e+00,-1.649871096014976501e-02,-1.920857653021812439e-02
2.581000000000000000e+03,1.679999923706054688e+01,1.200000047683715820e+00,3.030323014741043153e-08,6.740829405771364691e-08,3.794301271438598633e+00,-1.650294847786426544e-02,-1.920633018016815186e-02
2.582000000000000000e+03,1.689999961853027344e+01,1.200000047683715820e+00,3.048414853878966824e-08,6.820887676894926699e-08,3.794304609298706055e+00,-1.650779694318771362e-02,-1.920459233224391937e-02
2.583000000000000000e+03,1.700000000000000000e+01,1.200000047683715820e+00,3.066506693016890495e-08,6.901422011651447974e-08,3.794308662414550781e+00,-1.651332713663578033e-02,-1.920218765735626221e-02
2.584000000000000000e+03,1.710000038146972656e+01,1.200000047683715820e+00,3.084598532154814166e-08,6.982432410040928517e-08,3.794313669204711914e+00,-1.651961542665958405e-02,-1.919947937130928040e-02
2.585000000000000000e+03,1.720000076293945312e+01,1.200000047683715820e+00,3.102690371292737836e-08,7.063918161520632566e-08,3.794319391250610352e+00,-1.652674749493598938e-02,-1.919645257294178009e-02
2.586000000000000000e+03,1.729999923706054688e+01,1.200000047683715820e+00,3.120781855159293627e-08,7.145878555547824362e-08,3.794326305389404297e+00,-1.653480343520641327e-02,-1.919271051883697510e-02
2.587000000000000000e+03,1.739999961853027344e+01,1.200000047683715820e+00,3.138873694297217298e-08,7.228317144836182706e-08,3.794334411621093750e+00,-1.654387265443801880e-02,-1.918940246105194092e-02
2.588000000000000000e+03,1.750000000000000000e+01,1.200000047683715820e+00,3.156965888706508849e-08,7.311230376672028797e-08,3.794343709945678711e+00,-1.655403710901737213e-02,-1.918538659811019897e-02
2.589000000000000000e+03,1.760000038146972656e+01,1.200000047683715820e+00,3.175058083115800400e-08,7.394620382683569915e-08,3.794354915618896484e+00,-1.656537689268589020e-02,-1.918107643723487854e-02
2.590000000000000000e+03,1.770000076293945312e+01,1.200000047683715820e+00,3.193150277525091951e-08,7.478486452328070300e-08,3.794368028640747070e+00,-1.657796092331409454e-02,-1.917652226984500885e-02
2.591000000000000000e+03,1.779999923706054688e+01,1.200000047683715820e+00,3.211242116663015622e-08,7.562825743434586911e-08,3.794383287429809570e+00,-1.659183576703071594e-02,-1.917142607271671295e-02
2.592000000000000000e+03,1.789999961853027344e+01,1.200000047683715820e+00,3.229334311072307173e-08,7.647643229802270071e-08,3.794400930404663086e+00,-1.660702563822269440e-02,-1.916706375777721405e-02
2.593000000000000000e+03,1.800000000000000000e+01,1.200000047683715820e+00,3.247426860752966604e-08,7.732936779802912497e-08,3.794421434402465820e+00,-1.662349887192249298e-02,-1.916246488690376282e-02
2.594000000000000000e+03,1.810000038146972656e+01,1.200000047683715820e+00,3.265519410433626035e-08,7.818705682893778430e-08,3.794445037841796875e+00,-1.664116233587265015e-02,-1.915826648473739624e-02
2.595000000000000000e+03,1.820000076293945312e+01,1.200000047683715820e+00,3.283612315385653346e-08,7.904950649617603631e-08,3.794472217559814453e+00,-1.665981858968734741e-02,-1.915480010211467743e-02
2.596000000000000000e+03,1.829999923706054688e+01,1.200000047683715820e+00,3.301704865066312777e-08,7.991670258888916578e-08,3.794503211975097656e+00,-1.667913421988487244e-02,-1.915212161839008331e-02
2.597000000000000000e+03,1.839999961853027344e+01,1.200000047683715820e+00,3.319798125289707968e-08,8.078866642335924553e-08,3.794538497924804688e+00,-1.669857278466224670e-02,-1.915194280445575714e-02
2.598000000000000000e+03,1.850000000000000000e+01,1.200000047683715820e+00,3.337891385513103160e-08,8.166539089415891794e-08,3.794578075408935547e+00,-1.671732217073440552e-02,-1.915380731225013733e-02
2.599000000000000000e+03,1.860000038146972656e+01,1.200000047683715820e+00,3.355985001007866231e-08,8.254686889586082543e-08,3.794622659683227539e+00,-1.673419959843158722e-02,-1.915892772376537323e-02
2.600000000000000000e+03,1.870000076293945312e+01,1.200000047683715820e+00,3.374078971773997182e-08,8.343310753389232559e-08,3.794671535491943359e+00,-1.674751564860343933e-02,-1.916825212538242340e-02
2.601000000000000000e+03,1.879999923706054688e+01,1.200000047683715820e+00,3.392172587268760253e-08,8.432408549197134562e-08,3.794724941253662109e+00,-1.675494015216827393e-02,-1.918241940438747406e-02
2.602000000000000000e+03,1.889999961853027344e+01,1.200000047683715820e+00,3.410266913306259084e-08,8.521983829723467352e-08,3.794782161712646484e+00,-1.675333455204963684e-02,-1.920356042683124542e-02
2.603000000000000000e+03,1.900000000000000000e+01,1.200000047683715820e+00,3.428361594615125796e-08,8.612034463340023649e-08,3.794841766357421875e+00,-1.673862524330615997e-02,-1.923127286136150360e-02
2.604000000000000000e+03,1.910000038146972656e+01,1.200000047683715820e+00,3.446456631195360387e-08,8.702560450046803453e-08,3.794902324676513672e+00,-1.670575700700283051e-02,-1.926616393029689789e-02
2.605000000000000000e+03,1.920000076293945312e+01,1.200000047683715820e+00,3.464551667775594979e-08,8.793562500386542524e-08,3.794961452484130859e+00,-1.664884947240352631e-02,-1.930751092731952667e-02
2.606000000000000000e+03,1.929999923706054688e+01,1.200000047683715820e+00,3.482646704355829570e-08,8.885037772188297822e-08,3.795016288757324219e+00,-1.656168885529041290e-02,-1.935275457799434662e-02
2.607000000000000000e+03,1.939999961853027344e+01,1.200000047683715820e+00,3.500741740936064161e-08,8.976991239251219667e-08,3.795063257217407227e+00,-1.643871143460273743e-02,-1.939892768859863281e-02
2.608000000000000000e+03,1.950000000000000000e+01,1.200000047683715820e+00,3.518837132787666633e-08,9.069419348861629260e-08,3.795099973678588867e+00,-1.627654582262039185e-02,-1.943852193653583527e-02
2.609000000000000000e+03,1.960000038146972656e+01,1.200000047683715820e+00,3.536932169367901224e-08,9.162324232647733879e-08,3.795123815536499023e+00,-1.607590168714523315e-02,-1.946353539824485779e-02
2.610000000000000000e+03,1.970000076293945312e+01,1.200000047683715820e+00,3.555026850676767936e-08,9.255705180066797766e-08,3.795134305953979492e+00,-1.584334112703800201e-02,-1.946447789669036865e-02
2.611000000000000000e+03,1.979999923706054688e+01,1.200000047683715820e+00,3.573121176714266767e-08,9.349560770033349399e-08,3.795133590698242188e+00,-1.559206657111644745e-02,-1.943210884928703308e-02
2.612000000000000000e+03,1.989999961853027344e+01,1.200000047683715820e+00,3.591215147480397718e-08,9.443895265803803341e-08,3.795126199722290039e+00,-1.534093730151653290e-02,-1.936157234013080597e-02
2.613000000000000000e+03,2.000000000000000000e+01,1.200000047683715820e+00,3.609308762975160789e-08,9.538706535749952309e-08,3.795118331909179688e+00,-1.511141657829284668e-02,-1.925054565072059631e-02
2.614000000000000000e+03,0.000000000000000000e+00,1.299999952316284180e+00,1.795523631319652084e-37,5.661070913823913229e-38,3.512209653854370117e+00,1.053662896156311035e+00,1.580685824155807495e-01
2.615000000000000000e+03,1.000000014901161194e-01,1.299999952316284180e+00,1.521957559980080532e-10,1.957039738598176370e-11,3.478616714477539062e+00,9.416859745979309082e-01,1.219872608780860901e-01
2.616000000000000000e+03,2.000000029802322388e-01,1.299999952316284180e+00,3.074048515738780907e-10,4.653160148859747380e-11,3.514261245727539062e+00,8.495680093765258789e-01,1.435868889093399048e-01
2.617000000000000000e+03,3.000000119209289551e-01,1.299999952316284180e+00,4.655845153855864282e-10,8.024715614229904759e-11,3.549320459365844727e+00,7.584918141365051270e-01,1.581058800220489502e-01
2.618000000000000000e+03,4.000000059604644775e-01,1.299999952316284180e+00,6.266240859531535534e-10,1.200763238839996916e-10,3.582937717437744141e+00,6.703567504882812500e-01,1.657318621873855591e-01
2.619000000000000000e+03,5.000000000000000000e-01,1.299999952316284180e+00,7.903496190841963198e-10,1.654055226119055533e-10,3.614290475845336914e+00,5.868457555770874023e-01,1.670312583446502686e-01
2.620000000000000000e+03,6.000000238418579102e-01,1.299999952316284180e+00,9.565357395047158207e-10,2.156759909555105992e-10,3.642685413360595703e+00,5.092609524726867676e-01,1.628717929124832153e-01
2.621000000000000000e+03,6.999999880790710449e-01,1.299999952316284180e+00,1.124921267248168988e-09,2.704038937206831861e-10,3.667630910873413086e+00,4.384458065032958984e-01,1.543062776327133179e-01
2.622000000000000000e+03,8.000000119209289551e-01,1.299999952316284180e+00,1.295227480824223676e-09,3.291917016756684689e-10,3.688867330551147461e+00,3.747899234294891357e-01,1.424483209848403931e-01
2.623000000000000000e+03,8.999999761581420898e-01,1.299999952316284180e+00,1.467173826874557108e-09,3.917304258749254586e-10,3.706362247467041016e+00,3.182952702045440674e-01,1.283657252788543701e-01
2.624000000000000000e+03,1.000000000000000000e+00,1.299999952316284180e+00,1.640491631427209995e-09,4.577954959561481019e-10,3.720274448394775391e+00,2.686714529991149902e-01,1.130056083202362061e-01
2.625000000000000000e+03,1.100000023841857910e+00,1.299999952316284180e+00,1.814933092703086004e-09,5.272373093667681587e-10,3.730901002883911133e+00,2.254357933998107910e-01,9.715426713228225708e-02
2.626000000000000000e+03,1.200000047683715820e+00,1.299999952316284180e+00,1.990277276320284727e-09,5.999699070891040265e-10,3.738625049591064453e+00,1.879997700452804565e-01,8.142603188753128052e-02
2.627000000000000000e+03,1.299999952316284180e+00,1.299999952316284180e+00,2.166331558584033701e-09,6.759588999649679408e-10,3.743865728378295898e+00,1.557361036539077759e-01,6.627274304628372192e-02
2.628000000000000000e+03,1.399999976158142090e+00,1.299999952316284180e+00,2.342933180798922876e-09,7.552102276875416464e-10,3.747042179107666016e+00,1.280245780944824219e-01,5.200456082820892334e-02
2.629000000000000000e+03,1.500000000000000000e+00,1.299999952316284180e+00,2.519945807577528285e-09,8.377593618824619170e-10,3.748548269271850586e+00,1.042810901999473572e-01,3.881576657295227051e-02
2.630000000000000000e+03,1.600000023841857910e+00,1.299999952316284180e+00,2.697257528438967711e-09,9.236634235243457169e-10,3.748738050460815430e+00,8.397283405065536499e-02,2.681006491184234619e-02
2.631000000000000000e+03,1.700000047683715820e+00,1.299999952316284180e+00,2.874778193273641591e-09,1.012993910975978906e-09,3.747918367385864258e+00,6.662460416555404663e-02,1.602357253432273865e-02
2.632000000000000000e+03,1.799999952316284180e+00,1.299999952316284180e+00,3.052435193495739441e-09,1.105831204384344346e-09,3.746348381042480469e+00,5.181916803121566772e-02,6.444057449698448181e-03
2.633000000000000000e+03,1.899999976158142090e+00,1.299999952316284180e+00,3.230172573864820151e-09,1.202260735411186943e-09,3.744241952896118164e+00,3.919413313269615173e-02,-1.973888138309121132e-03
2.634000000000000000e+03,2.000000000000000000e+00,1.299999952316284180e+00,3.407945925459898717e-09,1.302369434519334845e-09,3.741772174835205078e+00,2.843720093369483948e-02,-9.296771138906478882e-03
2.635000000000000000e+03,2.099999904632568359e+00,1.299999952316284180e+00,3.585721719545631458e-09,1.406243455015498967e-09,3.739076375961303711e+00,1.928053237497806549e-02,-1.560361497104167938e-02
2.636000000000000000e+03,2.200000047683715820e+00,1.299999952316284180e+00,3.763474865081661846e-09,1.513967173849550818e-09,3.736262083053588867e+00,1.149509940296411514e-02,-2.097961120307445526e-02
2.637000000000000000e+03,2.299999952316284180e+00,1.299999952316284180e+00,3.941186488276571254e-09,1.625620749123868336e-09,3.733411073684692383e+00,4.885485861450433731e-03,-2.551125735044479370e-02
2.638000000000000000e+03,2.400000095367431641e+00,1.299999952316284180e+00,4.118843932587878953e-09,1.741281230316360507e-09,3.730585098266601562e+00,-7.150764577090740204e-04,-2.928389608860015869e-02
2.639000000000000000e+03,2.500000000000000000e+00,1.299999952316284180e+00,4.296436983963758394e-09,1.861020226812115652e-09,3.727829217910766602e+00,-5.448839161545038223e-03,-3.237899765372276306e-02
2.640000000000000000e+03,2.599999904632568359e+00,1.299999952316284180e+00,4.473961201512111074e-09,1.984905351193333445e-09,3.725175619125366211e+00,-9.437339380383491516e-03,-3.487360477447509766e-02
2.641000000000000000e+03,2.700000047683715820e+00,1.299999952316284180e+00,4.651413032519258195e-09,2.112999109016300281e-09,3.722645282745361328e+00,-1.278452482074499130e-02,-3.683919087052345276e-02
2.642000000000000000e+03,2.799999952316284180e+00,1.299999952316284180e+00,4.828790256539150505e-09,2.245359009833691744e-09,3.720252275466918945e+00,-1.557944156229496002e-02,-3.834135830402374268e-02
2.643000000000000000e+03,2.900000095367431641e+00,1.299999952316284180e+00,5.006093761750207705e-09,2.382038566395294765e-09,3.718003988265991211e+00,-1.789856515824794769e-02,-3.944025933742523193e-02
2.644000000000000000e+03,3.000000000000000000e+00,1.299999952316284180e+00,5.183324436330849494e-09,2.523086184424983003e-09,3.715902805328369141e+00,-1.980767212808132172e-02,-4.019005224108695984e-02
2.645000000000000000e+03,3.099999904632568359e+00,1.299999952316284180e+00,5.360484056637915273e-09,2.668546272843741463e-09,3.713948249816894531e+00,-2.136349119246006012e-02,-4.063982889056205750e-02
2.646000000000000000e+03,3.200000047683715820e+00,1.299999952316284180e+00,5.537575731295873993e-09,2.818459687858876350e-09,3.712137222290039062e+00,-2.261504344642162323e-02,-4.083348065614700317e-02
2.647000000000000000e+03,3.299999952316284180e+00,1.299999952316284180e+00,5.714601680750774904e-09,2.972863066830200296e-09,3.710464477539062500e+00,-2.360477112233638763e-02,-4.081005603075027466e-02
2.648000000000000000e+03,3.400000095367431641e+00,1.299999952316284180e+00,5.891565457716296805e-09,3.131789938493056979e-09,3.708924055099487305e+00,-2.436950430274009705e-02,-4.060457274317741394e-02
2.649000000000000000e+03,3.500000000000000000e+00,1.299999952316284180e+00,6.068469726727698799e-09,3.295269834779901430e-09,3.707509040832519531e+00,-2.494125068187713623e-02,-4.024769365787506104e-02
2.650000000000000000e+03,3.599999904632568359e+00,1.299999952316284180e+00,6.245318040498659684e-09,3.463330067177139426e-09,3.706212043762207031e+00,-2.534787729382514954e-02,-3.976678848266601562e-02
2.651000000000000000e+03,3.700000047683715820e+00,1.299999952316284180e+00,6.422113951742858262e-09,3.635995948769732422e-09,3.705025672912597656e+00,-2.561367303133010864e-02,-3.918578103184700012e-02
2.652000000000000000e+03,3.799999952316284180e+00,1.299999952316284180e+00,6.598860124995553633e-09,3.813287907661333520e-09,3.703942298889160156e+00,-2.575983293354511261e-02,-3.852549567818641663e-02
2.653000000000000000e+03,3.900000095367431641e+00,1.299999952316284180e+00,6.775560112970424598e-09,3.995226816044805673e-09,3.702954769134521484e+00,-2.580486610531806946e-02,-3.780439123511314392e-02
2.654000000000000000e+03,4.000000000000000000e+00,1.299999952316284180e+00,6.952216136113520406e-09,4.181828661131703484e-09,3.702055692672729492e+00,-2.576493844389915466e-02,-3.703815490007400513e-02
2.655000000000000000e+03,4.099999904632568359e+00,1.299999952316284180e+00,7.128832191227729709e-09,4.373109874222791404e-09,3.701238632202148438e+00,-2.565416879951953888e-02,-3.624063730239868164e-02
2.656000000000000000e+03,4.199999809265136719e+00,1.299999952316284180e+00,7.305410054669891906e-09,4.569084222083574787e-09,3.700496673583984375e+00,-2.548489347100257874e-02,-3.542359173297882080e-02
2.657000000000000000e+03,4.300000190734863281e+00,1.299999952316284180e+00,7.481953723242895649e-09,4.769764139211929432e-09,3.699824333190917969e+00,-2.526787109673023224e-02,-3.459716215729713440e-02
2.658000000000000000e+03,4.400000095367431641e+00,1.299999952316284180e+00,7.658464085125160636e-09,4.975158951481262193e-09,3.699215412139892578e+00,-2.501248009502887726e-02,-3.376964107155799866e-02
2.659000000000000000e+03,4.500000000000000000e+00,1.299999952316284180e+00,7.834944248941155820e-09,5.185278872943399620e-09,3.698664903640747070e+00,-2.472688071429729462e-02,-3.294848278164863586e-02
2.660000000000000000e+03,4.599999904632568359e+00,1.299999952316284180e+00,8.011395991047720599e-09,5.400131897204119014e-09,3.698167800903320312e+00,-2.441815659403800964e-02,-3.213959559798240662e-02
2.661000000000000000e+03,4.699999809265136719e+00,1.299999952316284180e+00,8.187821975980114075e-09,5.619725573779987826e-09,3.697719573974609375e+00,-2.409244142472743988e-02,-3.134792298078536987e-02
2.662000000000000000e+03,4.800000190734863281e+00,1.299999952316284180e+00,8.364224868273595348e-09,5.844066564009153808e-09,3.697315692901611328e+00,-2.375502698123455048e-02,-3.057755157351493835e-02
2.663000000000000000e+03,4.900000095367431641e+00,1.299999952316284180e+00,8.540604667928164417e-09,6.073158420605295760e-09,3.696952581405639648e+00,-2.341046556830406189e-02,-2.983141690492630005e-02
2.664000000000000000e+03,5.000000000000000000e+00,1.299999952316284180e+00,8.716963151300660684e-09,6.307006472638931882e-09,3.696626424789428711e+00,-2.306264638900756836e-02,-2.911226823925971985e-02
2.665000000000000000e+03,5.099999904632568359e+00,1.299999952316284180e+00,8.893303871104762948e-09,6.545614272823740976e-09,3.696333885192871094e+00,-2.271487750113010406e-02,-2.842188067734241486e-02
2.666000000000000000e+03,5.199999809265136719e+00,1.299999952316284180e+00,9.069626827340471209e-09,6.788985817962611691e-09,3.696072101593017578e+00,-2.236995100975036621e-02,-2.776158414781093597e-02
2.667000000000000000e+03,5.300000190734863281e+00,1.299999952316284180e+00,9.245933796364624868e-09,7.037124660769222828e-09,3.695837974548339844e+00,-2.203020080924034119e-02,-2.713232673704624176e-02
2.668000000000000000e+03,5.400000095367431641e+00,1.299999952316284180e+00,9.422226554534063325e-09,7.290030801243574388e-09,3.695629119873046875e+00,-2.169756777584552765e-02,-2.653430961072444916e-02
2.669000000000000000e+03,5.500000000000000000e+00,1.299999952316284180e+00,9.598505101848786580e-09,7.547706459831715620e-09,3.695443153381347656e+00,-2.137362957000732422e-02,-2.596793137490749359e-02
2.670000000000000000e+03,5.599999904632568359e+00,1.299999952316284180e+00,9.774771214665634034e-09,7.810154301068905625e-09,3.695277929306030273e+00,-2.105965465307235718e-02,-2.543294802308082581e-02
2.671000000000000000e+03,5.699999809265136719e+00,1.299999952316284180e+00,9.951025781163025385e-09,8.077373436776724702e-09,3.695131301879882812e+00,-2.075663954019546509e-02,-2.492896467447280884e-02
2.672000000000000000e+03,5.800000190734863281e+00,1.299999952316284180e+00,1.012727146587621974e-08,8.349368307847271353e-09,3.695001840591430664e+00,-2.046533860266208649e-02,-2.445546910166740417e-02
2.673000000000000000e+03,5.900000095367431641e+00,1.299999952316284180e+00,1.030350649244837768e-08,8.626135361566866777e-09,3.694887399673461914e+00,-2.018630504608154297e-02,-2.401144057512283325e-02
2.674000000000000000e+03,6.000000000000000000e+00,1.299999952316284180e+00,1.047973352541475833e-08,8.907677262470770074e-09,3.694786787033081055e+00,-1.991990394890308380e-02,-2.359626069664955139e-02
2.675000000000000000e+03,6.099999904632568359e+00,1.299999952316284180e+00,1.065595256477536168e-08,9.193992234202141844e-09,3.694698572158813477e+00,-1.966634765267372131e-02,-2.320884913206100464e-02
2.676000000000000000e+03,6.199999809265136719e+00,1.299999952316284180e+00,1.083216361053018773e-08,9.485082941296241188e-09,3.694621324539184570e+00,-1.942571438848972321e-02,-2.284814044833183289e-02
2.677000000000000000e+03,6.300000190734863281e+00,1.299999952316284180e+00,1.100837021539291527e-08,9.780948495574648405e-09,3.694554328918457031e+00,-1.919796690344810486e-02,-2.251309156417846680e-02
2.678000000000000000e+03,6.400000095367431641e+00,1.299999952316284180e+00,1.118456971482828521e-08,1.008158712068052409e-08,3.694496154785156250e+00,-1.898297294974327087e-02,-2.220227196812629700e-02
2.679000000000000000e+03,6.500000000000000000e+00,1.299999952316284180e+00,1.136076388519313696e-08,1.038699970479228796e-08,3.694445848464965820e+00,-1.878052018582820892e-02,-2.191476151347160339e-02
2.680000000000000000e+03,6.599999904632568359e+00,1.299999952316284180e+00,1.153695272648747050e-08,1.069718535973152029e-08,3.694402933120727539e+00,-1.859032362699508667e-02,-2.164927870035171509e-02
2.681000000000000000e+03,6.699999809265136719e+00,1.299999952316284180e+00,1.171313801506812524e-08,1.101214408549822110e-08,3.694366216659545898e+00,-1.841204799711704254e-02,-2.140462398529052734e-02
2.682000000000000000e+03,6.800000190734863281e+00,1.299999952316284180e+00,1.188931975093510118e-08,1.133187588209239038e-08,3.694335222244262695e+00,-1.824531517922878265e-02,-2.117970213294029236e-02
2.683000000000000000e+03,6.900000095367431641e+00,1.299999952316284180e+00,1.206549793408839832e-08,1.165637897315718874e-08,3.694309234619140625e+00,-1.808970794081687927e-02,-2.097308076918125153e-02
2.684000000000000000e+03,7.000000000000000000e+00,1.299999952316284180e+00,1.224167256452801666e-08,1.198565247051419647e-08,3.694287538528442383e+00,-1.794478856027126312e-02,-2.078388817608356476e-02
2.685000000000000000e+03,7.099999904632568359e+00,1.299999952316284180e+00,1.241784453043237590e-08,1.231969726234183327e-08,3.694269895553588867e+00,-1.781009696424007416e-02,-2.061093226075172424e-02
2.686000000000000000e+03,7.199999809265136719e+00,1.299999952316284180e+00,1.259401383180147604e-08,1.265851246046167944e-08,3.694255590438842773e+00,-1.768516004085540771e-02,-2.045314386487007141e-02
2.687000000000000000e+03,7.300000190734863281e+00,1.299999952316284180e+00,1.277018224499215648e-08,1.300209895305215468e-08,3.694244384765625000e+00,-1.756950095295906067e-02,-2.030957676470279694e-02
2.688000000000000000e+03,7.400000095367431641e+00,1.299999952316284180e+00,1.294634710546915812e-08,1.335045229922116050e-08,3.694235801696777344e+00,-1.746264286339282990e-02,-2.017897367477416992e-02
2.689000000000000000e+03,7.500000000000000000e+00,1.299999952316284180e+00,1.312251107776774006e-08,1.370357338714711659e-08,3.694229602813720703e+00,-1.736410334706306458e-02,-2.006065845489501953e-02
2.690000000000000000e+03,7.599999904632568359e+00,1.299999952316284180e+00,1.329867238553106290e-08,1.406146310500844265e-08,3.694225311279296875e+00,-1.727341488003730774e-02,-1.995364204049110413e-02
2.691000000000000000e+03,7.699999809265136719e+00,1.299999952316284180e+00,1.347483369329438574e-08,1.442412056462671899e-08,3.694222688674926758e+00,-1.719011180102825165e-02,-1.985706947743892670e-02
2.692000000000000000e+03,7.800000190734863281e+00,1.299999952316284180e+00,1.365099411287928888e-08,1.479154576600194559e-08,3.694221496582031250e+00,-1.711374148726463318e-02,-1.977021619677543640e-02
2.693000000000000000e+03,7.900000095367431641e+00,1.299999952316284180e+00,1.382715275610735262e-08,1.516373515642044367e-08,3.694221496582031250e+00,-1.704386621713638306e-02,-1.969204656779766083e-02
2.694000000000000000e+03,8.000000000000000000e+00,1.299999952316284180e+00,1.400331051115699665e-08,1.554069051223905262e-08,3.694222688674926758e+00,-1.698006130754947662e-02,-1.962211355566978455e-02
2.695000000000000000e+03,8.100000381469726562e+00,1.299999952316284180e+00,1.417946826620664069e-08,1.592241360981461185e-08,3.694224596023559570e+00,-1.692191511392593384e-02,-1.955974102020263672e-02
2.696000000000000000e+03,8.199999809265136719e+00,1.299999952316284180e+00,1.435562424489944533e-08,1.630889734371976374e-08,3.694227218627929688e+00,-1.686903648078441620e-02,-1.950392685830593109e-02
2.697000000000000000e+03,8.300000190734863281e+00,1.299999952316284180e+00,1.453178022359224997e-08,1.670014881938186591e-08,3.694230556488037109e+00,-1.682104915380477905e-02,-1.945471763610839844e-02
2.698000000000000000e+03,8.399999618530273438e+00,1.299999952316284180e+00,1.470793531410663491e-08,1.709616093137356074e-08,3.694234132766723633e+00,-1.677759736776351929e-02,-1.941082999110221863e-02
2.699000000000000000e+03,8.500000000000000000e+00,1.299999952316284180e+00,1.488409129279943954e-08,1.749694078512220585e-08,3.694238424301147461e+00,-1.673833839595317841e-02,-1.937247812747955322e-02
2.700000000000000000e+03,8.600000381469726562e+00,1.299999952316284180e+00,1.506024638331382448e-08,1.790248482791412243e-08,3.694242715835571289e+00,-1.670295000076293945e-02,-1.933863572776317596e-02
2.701000000000000000e+03,8.699999809265136719e+00,1.299999952316284180e+00,1.523640058564978972e-08,1.831278595432195289e-08,3.694247245788574219e+00,-1.667113043367862701e-02,-1.930885948240756989e-02
2.702000000000000000e+03,8.800000190734863281e+00,1.299999952316284180e+00,1.541255478798575496e-08,1.872785482248673361e-08,3.694252014160156250e+00,-1.664258912205696106e-02,-1.928328536450862885e-02
2.703000000000000000e+03,8.899999618530273438e+00,1.299999952316284180e+00,1.558870899032172019e-08,1.914768077426742821e-08,3.694256544113159180e+00,-1.661705970764160156e-02,-1.926080510020256042e-02
2.704000000000000000e+03,9.000000000000000000e+00,1.299999952316284180e+00,1.576486319265768543e-08,1.957227269144823367e-08,3.694261312484741211e+00,-1.659428700804710388e-02,-1.924179866909980774e-02
2.705000000000000000e+03,9.100000381469726562e+00,1.299999952316284180e+00,1.594101917135049007e-08,2.000162702131547121e-08,3.694266080856323242e+00,-1.657403260469436646e-02,-1.922539807856082916e-02
2.706000000000000000e+03,9.199999809265136719e+00,1.299999952316284180e+00,1.611717159732961591e-08,2.043573843479862262e-08,3.694270849227905273e+00,-1.655607856810092926e-02,-1.921130716800689697e-02
2.707000000000000000e+03,9.300000190734863281e+00,1.299999952316284180e+00,1.629332757602242054e-08,2.087461581368188490e-08,3.694275379180908203e+00,-1.654021814465522766e-02,-1.919980533421039581e-02
2.708000000000000000e+03,9.399999618530273438e+00,1.299999952316284180e+00,1.646948000200154638e-08,2.131825027618106105e-08,3.694279670715332031e+00,-1.652625948190689087e-02,-1.918991468846797943e-02
2.709000000000000000e+03,9.500000000000000000e+00,1.299999952316284180e+00,1.664563420433751162e-08,2.176664892772350868e-08,3.694284200668334961e+00,-1.651402190327644348e-02,-1.918214187026023865e-02
2.710000000000000000e+03,9.600000381469726562e+00,1.299999952316284180e+00,1.682179018303031626e-08,2.221980821559554897e-08,3.694288253784179688e+00,-1.650334522128105164e-02,-1.917573250830173492e-02
2.711000000000000000e+03,9.699999809265136719e+00,1.299999952316284180e+00,1.699794260900944209e-08,2.267772458708350314e-08,3.694292306900024414e+00,-1.649407483637332916e-02,-1.917050033807754517e-02
2.712000000000000000e+03,9.800000190734863281e+00,1.299999952316284180e+00,1.717409858770224673e-08,2.314040514761472878e-08,3.694296121597290039e+00,-1.648607105016708374e-02,-1.916682533919811249e-02
2.713000000000000000e+03,9.899999618530273438e+00,1.299999952316284180e+00,1.735025101368137257e-08,2.360784101540502888e-08,3.694299697875976562e+00,-1.647920347750186920e-02,-1.916382461786270142e-02
2.714000000000000000e+03,1.000000000000000000e+01,1.299999952316284180e+00,1.752640699237417721e-08,2.408004107223860046e-08,3.694303274154663086e+00,-1.647335477173328400e-02,-1.916209235787391663e-02
2.715000000000000000e+03,1.010000038146972656e+01,1.299999952316284180e+00,1.770256119471014244e-08,2.455700176540176471e-08,3.694306612014770508e+00,-1.646841503679752350e-02,-1.916095800697803497e-02
2.716000000000000000e+03,1.019999980926513672e+01,1.299999952316284180e+00,1.787871539704610768e-08,2.503871776582400344e-08,3.694309711456298828e+00,-1.646428555250167847e-02,-1.916029676795005798e-02
2.717000000000000000e+03,1.030000019073486328e+01,1.299999952316284180e+00,1.805487137573891232e-08,2.552519973164635303e-08,3.694312572479248047e+00,-1.646087504923343658e-02,-1.916058547794818878e-02
2.718000000000000000e+03,1.039999961853027344e+01,1.299999952316284180e+00,1.823102557807487756e-08,2.601643522837093769e-08,3.694315195083618164e+00,-1.645809970796108246e-02,-1.916096918284893036e-02
2.719000000000000000e+03,1.050000000000000000e+01,1.299999952316284180e+00,1.840718155676768220e-08,2.651243491413879383e-08,3.694317817687988281e+00,-1.645588688552379608e-02,-1.916213706135749817e-02
2.720000000000000000e+03,1.060000038146972656e+01,1.299999952316284180e+00,1.858333575910364743e-08,2.701319345987940324e-08,3.694320440292358398e+00,-1.645416580140590668e-02,-1.916344277560710907e-02
2.721000000000000000e+03,1.069999980926513672e+01,1.299999952316284180e+00,1.875948996143961267e-08,2.751870731287908711e-08,3.694322586059570312e+00,-1.645287498831748962e-02,-1.916482299566268921e-02
2.722000000000000000e+03,1.080000019073486328e+01,1.299999952316284180e+00,1.893564594013241731e-08,2.802898713127888186e-08,3.694324731826782227e+00,-1.645195856690406799e-02,-1.916680112481117249e-02
2.723000000000000000e+03,1.089999961853027344e+01,1.299999952316284180e+00,1.911180014246838255e-08,2.854401870422407228e-08,3.694326639175415039e+00,-1.645136810839176178e-02,-1.916856132447719574e-02
2.724000000000000000e+03,1.100000000000000000e+01,1.299999952316284180e+00,1.928795612116118718e-08,2.906381624256937357e-08,3.694328546524047852e+00,-1.645105518400669098e-02,-1.917082630097866058e-02
2.725000000000000000e+03,1.110000038146972656e+01,1.299999952316284180e+00,1.946411387621083122e-08,2.958837264088742813e-08,3.694330215454101562e+00,-1.645098067820072174e-02,-1.917298696935176849e-02
2.726000000000000000e+03,1.119999980926513672e+01,1.299999952316284180e+00,1.964026807854679646e-08,3.011768257010771777e-08,3.694331645965576172e+00,-1.645110733807086945e-02,-1.917500980198383331e-02
2.727000000000000000e+03,1.130000019073486328e+01,1.299999952316284180e+00,1.981642405723960110e-08,3.065175846472811827e-08,3.694333076477050781e+00,-1.645140536129474640e-02,-1.917744427919387817e-02
2.728000000000000000e+03,1.139999961853027344e+01,1.299999952316284180e+00,1.999257825957556634e-08,3.119058789025075384e-08,3.694334506988525391e+00,-1.645184308290481567e-02,-1.917950063943862915e-02
2.729000000000000000e+03,1.150000000000000000e+01,1.299999952316284180e+00,2.016873601462521037e-08,3.173418150481666089e-08,3.694335699081420898e+00,-1.645239628851413727e-02,-1.918192580342292786e-02
2.730000000000000000e+03,1.160000038146972656e+01,1.299999952316284180e+00,2.034489199331801501e-08,3.228253220299848181e-08,3.694336652755737305e+00,-1.645304076373577118e-02,-1.918412744998931885e-02
2.731000000000000000e+03,1.169999980926513672e+01,1.299999952316284180e+00,2.052104619565398025e-08,3.283563998479621659e-08,3.694337844848632812e+00,-1.645375974476337433e-02,-1.918609254062175751e-02
2.732000000000000000e+03,1.180000019073486328e+01,1.299999952316284180e+00,2.069720395070362429e-08,3.339351195563722285e-08,3.694338798522949219e+00,-1.645453274250030518e-02,-1.918838545680046082e-02
2.733000000000000000e+03,1.189999961853027344e+01,1.299999952316284180e+00,2.087335815303958952e-08,3.395613390466678538e-08,3.694339513778686523e+00,-1.645534671843051910e-02,-1.919022947549819946e-02
2.734000000000000000e+03,1.200000000000000000e+01,1.299999952316284180e+00,2.104951413173239416e-08,3.452352359545329819e-08,3.694340229034423828e+00,-1.645618863403797150e-02,-1.919238455593585968e-02
2.735000000000000000e+03,1.210000038146972656e+01,1.299999952316284180e+00,2.122567188678203820e-08,3.509567392256940366e-08,3.694340944290161133e+00,-1.645704545080661774e-02,-1.919427141547203064e-02
2.736000000000000000e+03,1.219999980926513672e+01,1.299999952316284180e+00,2.140182608911800344e-08,3.567257422787406540e-08,3.694341659545898438e+00,-1.645790971815586090e-02,-1.919588632881641388e-02
2.737000000000000000e+03,1.230000019073486328e+01,1.299999952316284180e+00,2.157798384416764748e-08,3.625423872222199861e-08,3.694342136383056641e+00,-1.645877026021480560e-02,-1.919780112802982330e-02
2.738000000000000000e+03,1.239999961853027344e+01,1.299999952316284180e+00,2.175413804650361271e-08,3.684066030018584570e-08,3.694342613220214844e+00,-1.645962335169315338e-02,-1.919924467802047729e-02
2.739000000000000000e+03,1.250000000000000000e+01,1.299999952316284180e+00,2.193029580155325675e-08,3.743184251447928546e-08,3.694343090057373047e+00,-1.646045967936515808e-02,-1.920098811388015747e-02
2.740000000000000000e+03,1.260000038146972656e+01,1.299999952316284180e+00,2.210645355660290079e-08,3.802778891781599668e-08,3.694343566894531250e+00,-1.646127738058567047e-02,-1.920245401561260223e-02
2.741000000000000000e+03,1.269999980926513672e+01,1.299999952316284180e+00,2.228260775893886603e-08,3.862848529934126418e-08,3.694343805313110352e+00,-1.646207273006439209e-02,-1.920364424586296082e-02
2.742000000000000000e+03,1.280000019073486328e+01,1.299999952316284180e+00,2.245876551398851007e-08,3.923394586990980315e-08,3.694344282150268555e+00,-1.646284013986587524e-02,-1.920513622462749481e-02
2.743000000000000000e+03,1.289999961853027344e+01,1.299999952316284180e+00,2.263491971632447530e-08,3.984415997138057719e-08,3.694344520568847656e+00,-1.646357960999011993e-02,-1.920616067945957184e-02
2.744000000000000000e+03,1.300000000000000000e+01,1.299999952316284180e+00,2.281107747137411934e-08,4.045914181460830150e-08,3.694344758987426758e+00,-1.646428741514682770e-02,-1.920749247074127197e-02
2.745000000000000000e+03,1.310000038146972656e+01,1.299999952316284180e+00,2.298723522642376338e-08,4.107888074145193968e-08,3.694344997406005859e+00,-1.646496541798114777e-02,-1.920855604112148285e-02
2.746000000000000000e+03,1.319999980926513672e+01,1.299999952316284180e+00,2.316338942875972862e-08,4.170336964648413414e-08,3.694345235824584961e+00,-1.646561175584793091e-02,-1.920935325324535370e-02
2.747000000000000000e+03,1.330000019073486328e+01,1.299999952316284180e+00,2.333954718380937265e-08,4.233262629327327886e-08,3.694345235824584961e+00,-1.646622456610202789e-02,-1.921046525239944458e-02
2.748000000000000000e+03,1.339999961853027344e+01,1.299999952316284180e+00,2.351570316250217729e-08,4.296663647096465866e-08,3.694345474243164062e+00,-1.646680571138858795e-02,-1.921112462878227234e-02
2.749000000000000000e+03,1.350000000000000000e+01,1.299999952316284180e+00,2.369185914119498193e-08,4.360541083769930992e-08,3.694345474243164062e+00,-1.646735705435276031e-02,-1.921210438013076782e-02
2.750000000000000000e+03,1.360000038146972656e+01,1.299999952316284180e+00,2.386801689624462597e-08,4.424894584076355386e-08,3.694345712661743164e+00,-1.646787673234939575e-02,-1.921283081173896790e-02
2.751000000000000000e+03,1.369999980926513672e+01,1.299999952316284180e+00,2.404417287493743061e-08,4.489723437473003287e-08,3.694345712661743164e+00,-1.646836847066879272e-02,-1.921330764889717102e-02
2.752000000000000000e+03,1.380000019073486328e+01,1.299999952316284180e+00,2.422032885363023524e-08,4.555028709773978335e-08,3.694345712661743164e+00,-1.646883413195610046e-02,-1.921411417424678802e-02
2.753000000000000000e+03,1.389999961853027344e+01,1.299999952316284180e+00,2.439648483232303988e-08,4.620808979893809010e-08,3.694345951080322266e+00,-1.646927371621131897e-02,-1.921448297798633575e-02
2.754000000000000000e+03,1.400000000000000000e+01,1.299999952316284180e+00,2.457264258737268392e-08,4.687066024189334712e-08,3.694345951080322266e+00,-1.646969094872474670e-02,-1.921518705785274506e-02
2.755000000000000000e+03,1.410000038146972656e+01,1.299999952316284180e+00,2.474879856606548856e-08,4.753799132117819681e-08,3.694345951080322266e+00,-1.647008955478668213e-02,-1.921565271914005280e-02
2.756000000000000000e+03,1.419999980926513672e+01,1.299999952316284180e+00,2.492495454475829320e-08,4.821007237865160278e-08,3.694345951080322266e+00,-1.647046953439712524e-02,-1.921587996184825897e-02
2.757000000000000000e+03,1.430000019073486328e+01,1.299999952316284180e+00,2.510111229980793723e-08,4.888691762516828021e-08,3.694345951080322266e+00,-1.647083647549152374e-02,-1.921645179390907288e-02
2.758000000000000000e+03,1.439999961853027344e+01,1.299999952316284180e+00,2.527726827850074187e-08,4.956851995530087152e-08,3.694345951080322266e+00,-1.647119224071502686e-02,-1.921659708023071289e-02
2.759000000000000000e+03,1.450000000000000000e+01,1.299999952316284180e+00,2.545342425719354651e-08,5.025488647447673429e-08,3.694345951080322266e+00,-1.647154428064823151e-02,-1.921708695590496063e-02
2.760000000000000000e+03,1.460000038146972656e+01,1.299999952316284180e+00,2.562958201224319055e-08,5.094601007726851094e-08,3.694345951080322266e+00,-1.647189632058143616e-02,-1.921734772622585297e-02
2.761000000000000000e+03,1.469999980926513672e+01,1.299999952316284180e+00,2.580573799093599519e-08,5.164188721096252266e-08,3.694345951080322266e+00,-1.647225208580493927e-02,-1.921738125383853912e-02
2.762000000000000000e+03,1.480000019073486328e+01,1.299999952316284180e+00,2.598189396962879982e-08,5.234252853369980585e-08,3.694345951080322266e+00,-1.647261902689933777e-02,-1.921776123344898224e-02
2.763000000000000000e+03,1.489999961853027344e+01,1.299999952316284180e+00,2.615804994832160446e-08,5.304792338733932411e-08,3.694345951080322266e+00,-1.647300459444522858e-02,-1.921772211790084839e-02
2.764000000000000000e+03,1.500000000000000000e+01,1.299999952316284180e+00,2.633420770337124850e-08,5.375808598273579264e-08,3.694345951080322266e+00,-1.647341623902320862e-02,-1.921803131699562073e-02
2.765000000000000000e+03,1.510000038146972656e+01,1.299999952316284180e+00,2.651036545842089254e-08,5.447300566174817504e-08,3.694345951080322266e+00,-1.647386513650417328e-02,-1.921811327338218689e-02
2.766000000000000000e+03,1.519999980926513672e+01,1.299999952316284180e+00,2.668651966075685777e-08,5.519267887166279252e-08,3.694346189498901367e+00,-1.647435687482357025e-02,-1.921796426177024841e-02
2.767000000000000000e+03,1.530000019073486328e+01,1.299999952316284180e+00,2.686267741580650181e-08,5.591711627062068146e-08,3.694346189498901367e+00,-1.647490821778774261e-02,-1.921815983951091766e-02
2.768000000000000000e+03,1.539999961853027344e+01,1.299999952316284180e+00,2.703883339449930645e-08,5.664630720048080548e-08,3.694346427917480469e+00,-1.647552847862243652e-02,-1.921792887151241302e-02
2.769000000000000000e+03,1.550000000000000000e+01,1.299999952316284180e+00,2.721499114954895049e-08,5.738026231938420096e-08,3.694346666336059570e+00,-1.647623628377914429e-02,-1.921803876757621765e-02
2.770000000000000000e+03,1.560000038146972656e+01,1.299999952316284180e+00,2.739114890459859453e-08,5.811897807461718912e-08,3.694346904754638672e+00,-1.647704467177391052e-02,-1.921790838241577148e-02
2.771000000000000000e+03,1.569999980926513672e+01,1.299999952316284180e+00,2.756730310693455976e-08,5.886244736075241235e-08,3.694347143173217773e+00,-1.647797785699367523e-02,-1.921753212809562683e-02
2.772000000000000000e+03,1.580000019073486328e+01,1.299999952316284180e+00,2.774346086198420380e-08,5.961067728321722825e-08,3.694347620010375977e+00,-1.647905446588993073e-02,-1.921748183667659760e-02
2.773000000000000000e+03,1.589999961853027344e+01,1.299999952316284180e+00,2.791961684067700844e-08,6.036366784201163682e-08,3.694348096847534180e+00,-1.648030057549476624e-02,-1.921698264777660370e-02
2.774000000000000000e+03,1.600000000000000000e+01,1.299999952316284180e+00,2.809577459572665248e-08,6.112141903713563806e-08,3.694348812103271484e+00,-1.648174226284027100e-02,-1.921679638326168060e-02
2.775000000000000000e+03,1.610000038146972656e+01,1.299999952316284180e+00,2.827193235077629652e-08,6.188393086858923198e-08,3.694349765777587891e+00,-1.648341491818428040e-02,-1.921633817255496979e-02
2.776000000000000000e+03,1.620000076293945312e+01,1.299999952316284180e+00,2.844809010582594055e-08,6.265119623094506096e-08,3.694350719451904297e+00,-1.648534834384918213e-02,-1.921579055488109589e-02
2.777000000000000000e+03,1.629999923706054688e+01,1.299999952316284180e+00,2.862424430816190579e-08,6.342321512420312501e-08,3.694351911544799805e+00,-1.648758538067340851e-02,-1.921476237475872040e-02
2.778000000000000000e+03,1.639999961853027344e+01,1.299999952316284180e+00,2.880040206321154983e-08,6.420000175921813934e-08,3.694353580474853516e+00,-1.649016700685024261e-02,-1.921439170837402344e-02
2.779000000000000000e+03,1.650000000000000000e+01,1.299999952316284180e+00,2.897655981826119387e-08,6.498154903056274634e-08,3.694355487823486328e+00,-1.649314165115356445e-02,-1.921351812779903412e-02
2.780000000000000000e+03,1.660000038146972656e+01,1.299999952316284180e+00,2.915271757331083791e-08,6.576785693823694601e-08,3.694357633590698242e+00,-1.649656146764755249e-02,-1.921251416206359863e-02
2.781000000000000000e+03,1.670000076293945312e+01,1.299999952316284180e+00,2.932887710471732134e-08,6.655891837681338075e-08,3.694360494613647461e+00,-1.650048419833183289e-02,-1.921136677265167236e-02
2.782000000000000000e+03,1.679999923706054688e+01,1.299999952316284180e+00,2.950503130705328658e-08,6.735473334629205056e-08,3.694363594055175781e+00,-1.650497131049633026e-02,-1.920968107879161835e-02
2.783000000000000000e+03,1.689999961853027344e+01,1.299999952316284180e+00,2.968119083845977002e-08,6.815531605752767064e-08,3.694367647171020508e+00,-1.651008799672126770e-02,-1.920860074460506439e-02
2.784000000000000000e+03,1.700000000000000000e+01,1.299999952316284180e+00,2.985735036986625346e-08,6.896065940509288339e-08,3.694372177124023438e+00,-1.651590690016746521e-02,-1.920696720480918884e-02
2.785000000000000000e+03,1.710000038146972656e+01,1.299999952316284180e+00,3.003350812491589750e-08,6.977075628356033121e-08,3.694377660751342773e+00,-1.652250066399574280e-02,-1.920515857636928558e-02
2.786000000000000000e+03,1.720000076293945312e+01,1.299999952316284180e+00,3.020966943267922034e-08,7.058562090378472931e-08,3.694384098052978516e+00,-1.652994565665721893e-02,-1.920318044722080231e-02
2.787000000000000000e+03,1.729999923706054688e+01,1.299999952316284180e+00,3.038582718772886437e-08,7.140522484405664727e-08,3.694391727447509766e+00,-1.653831638395786285e-02,-1.920065470039844513e-02
2.788000000000000000e+03,1.739999961853027344e+01,1.299999952316284180e+00,3.056198494277850841e-08,7.222960363151287311e-08,3.694400787353515625e+00,-1.654768548905849457e-02,-1.919875852763652802e-02
2.789000000000000000e+03,1.750000000000000000e+01,1.299999952316284180e+00,3.073814980325551005e-08,7.305874305529869162e-08,3.694411039352416992e+00,-1.655812375247478485e-02,-1.919637434184551239e-02
2.790000000000000000e+03,1.760000038146972656e+01,1.299999952316284180e+00,3.091431111101883289e-08,7.389263600998674519e-08,3.694423198699951172e+00,-1.656968332827091217e-02,-1.919393800199031830e-02
2.791000000000000000e+03,1.770000076293945312e+01,1.299999952316284180e+00,3.109047241878215573e-08,7.473129670643174904e-08,3.694437265396118164e+00,-1.658240146934986115e-02,-1.919153518974781036e-02
2.792000000000000000e+03,1.779999923706054688e+01,1.299999952316284180e+00,3.126663372654547857e-08,7.557468961749691516e-08,3.694453477859497070e+00,-1.659628748893737793e-02,-1.918889023363590240e-02
2.793000000000000000e+03,1.789999961853027344e+01,1.299999952316284180e+00,3.144279858702248021e-08,7.642286448117374675e-08,3.694472312927246094e+00,-1.661130599677562714e-02,-1.918731071054935455e-02
2.794000000000000000e+03,1.800000000000000000e+01,1.299999952316284180e+00,3.161896700021316065e-08,7.727579998118017102e-08,3.694493770599365234e+00,-1.662736386060714722e-02,-1.918584853410720825e-02
2.795000000000000000e+03,1.810000038146972656e+01,1.299999952316284180e+00,3.179513541340384108e-08,7.813348901208883035e-08,3.694518089294433594e+00,-1.664428040385246277e-02,-1.918515376746654510e-02
2.796000000000000000e+03,1.820000076293945312e+01,1.299999952316284180e+00,3.197130382659452152e-08,7.899593867932708235e-08,3.694545984268188477e+00,-1.666176132857799530e-02,-1.918555982410907745e-02
2.797000000000000000e+03,1.829999923706054688e+01,1.299999952316284180e+00,3.214747223978520196e-08,7.986312766661285423e-08,3.694577217102050781e+00,-1.667935401201248169e-02,-1.918710395693778992e-02
2.798000000000000000e+03,1.839999961853027344e+01,1.299999952316284180e+00,3.232364420568956120e-08,8.073509150108293397e-08,3.694612264633178711e+00,-1.669639162719249725e-02,-1.919144019484519958e-02
2.799000000000000000e+03,1.850000000000000000e+01,1.299999952316284180e+00,3.249981972430759924e-08,8.161181597188260639e-08,3.694651126861572266e+00,-1.671193353831768036e-02,-1.919800788164138794e-02
2.800000000000000000e+03,1.860000038146972656e+01,1.299999952316284180e+00,3.267599524292563729e-08,8.249329397358451388e-08,3.694693565368652344e+00,-1.672467030584812164e-02,-1.920784823596477509e-02
2.801000000000000000e+03,1.870000076293945312e+01,1.299999952316284180e+00,3.285217786697103293e-08,8.337953261161601404e-08,3.694739818572998047e+00,-1.673285104334354401e-02,-1.922165416181087494e-02
2.802000000000000000e+03,1.879999923706054688e+01,1.299999952316284180e+00,3.302835338558907097e-08,8.427051056969503406e-08,3.694788932800292969e+00,-1.673416607081890106e-02,-1.923969201743602753e-02
2.803000000000000000e+03,1.889999961853027344e+01,1.299999952316284180e+00,3.320453956234814541e-08,8.516625626953100436e-08,3.694840431213378906e+00,-1.672568917274475098e-02,-1.926360651850700378e-02
2.804000000000000000e+03,1.900000000000000000e+01,1.299999952316284180e+00,3.338072573910721985e-08,8.606676260569656733e-08,3.694892883300781250e+00,-1.670383475720882416e-02,-1.929239742457866669e-02
2.805000000000000000e+03,1.910000038146972656e+01,1.299999952316284180e+00,3.355691546857997309e-08,8.697202957819172298e-08,3.694944620132446289e+00,-1.666443608701229095e-02,-1.932601071894168854e-02
2.806000000000000000e+03,1.920000076293945312e+01,1.299999952316284180e+00,3.373310519805272634e-08,8.788205008158911369e-08,3.694993734359741211e+00,-1.660300791263580322e-02,-1.936312019824981689e-02
2.807000000000000000e+03,1.929999923706054688e+01,1.299999952316284180e+00,3.390929137481180078e-08,8.879680990503402427e-08,3.695037841796875000e+00,-1.651524566113948822e-02,-1.940080150961875916e-02
2.808000000000000000e+03,1.939999961853027344e+01,1.299999952316284180e+00,3.408548110428455402e-08,8.971634457566324272e-08,3.695074319839477539e+00,-1.639784686267375946e-02,-1.943621784448623657e-02
2.809000000000000000e+03,1.950000000000000000e+01,1.299999952316284180e+00,3.426167438647098606e-08,9.064063277719469625e-08,3.695101499557495117e+00,-1.624960266053676605e-02,-1.946275122463703156e-02
2.810000000000000000e+03,1.960000038146972656e+01,1.299999952316284180e+00,3.443786056323006051e-08,9.156968872048310004e-08,3.695117950439453125e+00,-1.607257127761840820e-02,-1.947417855262756348e-02
2.811000000000000000e+03,1.970000076293945312e+01,1.299999952316284180e+00,3.461404673998913495e-08,9.250350530010109651e-08,3.695124387741088867e+00,-1.587297953665256500e-02,-1.946354657411575317e-02
2.812000000000000000e+03,1.979999923706054688e+01,1.299999952316284180e+00,3.479022581132085179e-08,9.344207541062132805e-08,3.695122241973876953e+00,-1.566140912473201752e-02,-1.942439936101436615e-02
2.813000000000000000e+03,1.989999961853027344e+01,1.299999952316284180e+00,3.496640488265256863e-08,9.438542747375322506e-08,3.695115566253662109e+00,-1.545185036957263947e-02,-1.935410685837268829e-02
2.814000000000000000e+03,2.000000000000000000e+01,1.299999952316284180e+00,3.514258040127060667e-08,9.533355438406942994e-08,3.695109128952026367e+00,-1.525966636836528778e-02,-1.925119012594223022e-02
2.815000000000000000e+03,0.000000000000000000e+00,1.399999976158142090e+00,1.728287649443190171e-37,5.346944639673147636e-38,3.410932302474975586e+00,1.023279666900634766e+00,1.218224614858627319e-01
2.816000000000000000e+03,1.000000014901161194e-01,1.399999976158142090e+00,1.478070582594526172e-10,1.508278051065570224e-11,3.379863977432250977e+00,9.197193384170532227e-01,8.637533336877822876e-02
2.817000000000000000e+03,2.000000029802322388e-01,1.399999976158142090e+00,2.984080205159500565e-10,3.752556945735285865e-11,3.413057327270507812e+00,8.347905874252319336e-01,1.086020767688751221e-01
2.818000000000000000e+03,3.000000119209289551e-01,1.399999976158142090e+00,4.517669849324335019e-10,6.677178254754778663e-11,3.445761442184448242e+00,7.507456541061401367e-01,1.246162131428718567e-01
2.819000000000000000e+03,4.000000059604644775e-01,1.399999976158142090e+00,6.077935377213350421e-10,1.022619003365754509e-10,3.477282762527465820e+00,6.690819859504699707e-01,1.345583200454711914e-01
2.820000000000000000e+03,5.000000000000000000e-01,1.399999976158142090e+00,7.663460421802881228e-10,1.434566493374589413e-10,3.506950139999389648e+00,5.911586880683898926e-01,1.388518661260604858e-01
2.821000000000000000e+03,6.000000238418579102e-01,1.399999976158142090e+00,9.272393408643608836e-10,1.898580320736087401e-10,3.534181356430053711e+00,5.180772542953491211e-01,1.381556540727615356e-01
2.822000000000000000e+03,6.999999880790710449e-01,1.399999976158142090e+00,1.090256107616482950e-09,2.410254495988084500e-10,3.558537006378173828e+00,4.506138861179351807e-01,1.332876384258270264e-01
2.823000000000000000e+03,8.000000119209289551e-01,1.399999976158142090e+00,1.255160197999316551e-09,2.965860335102377121e-10,3.579748630523681641e+00,3.892059624195098877e-01,1.251386255025863647e-01
2.824000000000000000e+03,8.999999761581420898e-01,1.399999976158142090e+00,1.421709083793132322e-09,3.562383443789229887e-10,3.597722768783569336e+00,3.339832723140716553e-01,1.145928427577018738e-01
2.825000000000000000e+03,1.000000000000000000e+00,1.399999976158142090e+00,1.589665066248358016e-09,4.197511505044104752e-10,3.612521171569824219e+00,2.848255634307861328e-01,1.024660691618919373e-01
2.826000000000000000e+03,1.100000023841857910e+00,1.399999976158142090e+00,1.758803214180204577e-09,4.869578629218551669e-10,3.624329090118408203e+00,2.414307147264480591e-01,8.946646749973297119e-02
2.827000000000000000e+03,1.200000047683715820e+00,1.399999976158142090e+00,1.928917692239906501e-09,5.577486805741216358e-10,3.633417129516601562e+00,2.033796310424804688e-01,7.617613673210144043e-02
2.828000000000000000e+03,1.299999952316284180e+00,1.399999976158142090e+00,2.099824536472283398e-09,6.320617362831626451e-10,3.640104532241821289e+00,1.701912134885787964e-01,6.304957717657089233e-02
2.829000000000000000e+03,1.399999976158142090e+00,1.399999976158142090e+00,2.271363541694881860e-09,7.098742704769733791e-10,3.644728899002075195e+00,1.413640379905700684e-01,5.042307078838348389e-02
2.830000000000000000e+03,1.500000000000000000e+00,1.399999976158142090e+00,2.443397040252648367e-09,7.911936106275163638e-10,3.647622108459472656e+00,1.164057627320289612e-01,3.853062540292739868e-02
2.831000000000000000e+03,1.600000023841857910e+00,1.399999976158142090e+00,2.615808458727997277e-09,8.760502323568175598e-10,3.649095058441162109e+00,9.485152363777160645e-02,2.752166986465454102e-02
2.832000000000000000e+03,1.700000047683715820e+00,1.399999976158142090e+00,2.788501207717786201e-09,9.644913756545747674e-10,3.649427890777587891e+00,7.627426832914352417e-02,1.747882738709449768e-02
2.833000000000000000e+03,1.799999952316284180e+00,1.399999976158142090e+00,2.961395129119637204e-09,1.056575382740732039e-09,3.648866653442382812e+00,6.028933450579643250e-02,8.433839306235313416e-03
2.834000000000000000e+03,1.899999976158142090e+00,1.399999976158142090e+00,3.134426496131936801e-09,1.152368755974464420e-09,3.647620916366577148e+00,4.655496776103973389e-02,3.809521149378269911e-04
2.835000000000000000e+03,2.000000000000000000e+00,1.399999976158142090e+00,3.307542462138712835e-09,1.251941439406323298e-09,3.645866870880126953e+00,3.477072715759277344e-02,-6.711777765303850174e-03
2.836000000000000000e+03,2.099999904632568359e+00,1.399999976158142090e+00,3.480701726843449251e-09,1.355364820376792068e-09,3.643750190734863281e+00,2.467428520321846008e-02,-1.289401296526193619e-02
2.837000000000000000e+03,2.200000047683715820e+00,1.399999976158142090e+00,3.653872315823036843e-09,1.462711063382471366e-09,3.641388416290283203e+00,1.603770442306995392e-02,-1.822649687528610229e-02
2.838000000000000000e+03,2.299999952316284180e+00,1.399999976158142090e+00,3.827028027814094457e-09,1.574049335317795340e-09,3.638876199722290039e+00,8.663675747811794281e-03,-2.277569659054279327e-02
2.839000000000000000e+03,2.400000095367431641e+00,1.399999976158142090e+00,4.000150877203623168e-09,1.689447692854173511e-09,3.636287450790405273e+00,2.381592988967895508e-03,-2.661078795790672302e-02
2.840000000000000000e+03,2.500000000000000000e+00,1.399999976158142090e+00,4.173225320869278221e-09,1.808969751770916901e-09,3.633680343627929688e+00,-2.955800853669643402e-03,-2.980033680796623230e-02
2.841000000000000000e+03,2.599999904632568359e+00,1.399999976158142090e+00,4.346241588848442916e-09,1.932676463312077431e-09,3.631098985671997070e+00,-7.475685793906450272e-03,-3.241122141480445862e-02
2.842000000000000000e+03,2.700000047683715820e+00,1.399999976158142090e+00,4.519192131624549802e-09,2.060624781918818371e-09,3.628575801849365234e+00,-1.128790993243455887e-02,-3.450701013207435608e-02
2.843000000000000000e+03,2.799999952316284180e+00,1.399999976158142090e+00,4.692072064216290528e-09,2.192867221140204492e-09,3.626135110855102539e+00,-1.448741741478443146e-02,-3.614721819758415222e-02
2.844000000000000000e+03,2.900000095367431641e+00,1.399999976158142090e+00,4.864879166177615843e-09,2.329453296923134076e-09,3.623793363571166992e+00,-1.715642027556896210e-02,-3.738738596439361572e-02
2.845000000000000000e+03,3.000000000000000000e+00,1.399999976158142090e+00,5.037610772973266648e-09,2.470427196143987203e-09,3.621561527252197266e+00,-1.936615630984306335e-02,-3.827822953462600708e-02
2.846000000000000000e+03,3.099999904632568359e+00,1.399999976158142090e+00,5.210267772781662643e-09,2.615831329322304555e-09,3.619446754455566406e+00,-2.117848210036754608e-02,-3.886634111404418945e-02
2.847000000000000000e+03,3.200000047683715820e+00,1.399999976158142090e+00,5.382851497870433377e-09,2.765703444040923387e-09,3.617452144622802734e+00,-2.264718152582645416e-02,-3.919382393360137939e-02
2.848000000000000000e+03,3.299999952316284180e+00,1.399999976158142090e+00,5.555361948239578851e-09,2.920077513124397228e-09,3.615577936172485352e+00,-2.381908148527145386e-02,-3.929851576685905457e-02
2.849000000000000000e+03,3.400000095367431641e+00,1.399999976158142090e+00,5.727802232513568015e-09,3.078985955085045134e-09,3.613823175430297852e+00,-2.473502978682518005e-02,-3.921464830636978149e-02
2.850000000000000000e+03,3.500000000000000000e+00,1.399999976158142090e+00,5.900174127049240269e-09,3.242456081409272883e-09,3.612185001373291016e+00,-2.543068490922451019e-02,-3.897244855761528015e-02
2.851000000000000000e+03,3.599999904632568359e+00,1.399999976158142090e+00,6.072480740471064564e-09,3.410514093360461629e-09,3.610659837722778320e+00,-2.593722566962242126e-02,-3.859907016158103943e-02
2.852000000000000000e+03,3.700000047683715820e+00,1.399999976158142090e+00,6.244725181403509850e-09,3.583183749711338351e-09,3.609242677688598633e+00,-2.628193423151969910e-02,-3.811843693256378174e-02
2.853000000000000000e+03,3.799999952316284180e+00,1.399999976158142090e+00,6.416909670292625378e-09,3.760484812431741375e-09,3.607928752899169922e+00,-2.648869901895523071e-02,-3.755148872733116150e-02
2.854000000000000000e+03,3.900000095367431641e+00,1.399999976158142090e+00,6.589037759852089948e-09,3.942436599402299180e-09,3.606713056564331055e+00,-2.657843939960002899e-02,-3.691689670085906982e-02
2.855000000000000000e+03,4.000000000000000000e+00,1.399999976158142090e+00,6.761111670527952811e-09,4.129055319879171293e-09,3.605589866638183594e+00,-2.656948938965797424e-02,-3.623063862323760986e-02
2.856000000000000000e+03,4.099999904632568359e+00,1.399999976158142090e+00,6.933135399123102616e-09,4.320355628806282766e-09,3.604553937911987305e+00,-2.647790312767028809e-02,-3.550688177347183228e-02
2.857000000000000000e+03,4.199999809265136719e+00,1.399999976158142090e+00,7.105111166083588614e-09,4.516350848859929101e-09,3.603599786758422852e+00,-2.631773427128791809e-02,-3.475771844387054443e-02
2.858000000000000000e+03,4.300000190734863281e+00,1.399999976158142090e+00,7.277042968212299456e-09,4.717053858627195950e-09,3.602722167968750000e+00,-2.610127255320549011e-02,-3.399366140365600586e-02
2.859000000000000000e+03,4.400000095367431641e+00,1.399999976158142090e+00,7.448931693687654843e-09,4.922472651713860614e-09,3.601916313171386719e+00,-2.583925612270832062e-02,-3.322336077690124512e-02
2.860000000000000000e+03,4.500000000000000000e+00,1.399999976158142090e+00,7.620781339312543423e-09,5.132617442171749644e-09,3.601176977157592773e+00,-2.554104290902614594e-02,-3.245461732149124146e-02
2.861000000000000000e+03,4.599999904632568359e+00,1.399999976158142090e+00,7.792593237354594748e-09,5.347495779517430492e-09,3.600499868392944336e+00,-2.521477453410625458e-02,-3.169368579983711243e-02
2.862000000000000000e+03,4.699999809265136719e+00,1.399999976158142090e+00,7.964371384616697469e-09,5.567114325089050908e-09,3.599880456924438477e+00,-2.486751787364482880e-02,-3.094583190977573395e-02
2.863000000000000000e+03,4.800000190734863281e+00,1.399999976158142090e+00,8.136118445634110685e-09,5.791480628403178343e-09,3.599314689636230469e+00,-2.450537681579589844e-02,-3.021546266973018646e-02
2.864000000000000000e+03,4.900000095367431641e+00,1.399999976158142090e+00,8.307834420406834397e-09,6.020597798084281749e-09,3.598798274993896484e+00,-2.413361892104148865e-02,-2.950580604374408722e-02
2.865000000000000000e+03,5.000000000000000000e+00,1.399999976158142090e+00,8.479521973470127705e-09,6.254470275024459625e-09,3.598327636718750000e+00,-2.375675365328788757e-02,-2.881988696753978729e-02
2.866000000000000000e+03,5.099999904632568359e+00,1.399999976158142090e+00,8.651184657537669409e-09,6.493102500115810471e-09,3.597899436950683594e+00,-2.337862364947795868e-02,-2.815974317491054535e-02
2.867000000000000000e+03,5.199999809265136719e+00,1.399999976158142090e+00,8.822823360787879210e-09,6.736497581982803240e-09,3.597510337829589844e+00,-2.300248667597770691e-02,-2.752694301307201385e-02
2.868000000000000000e+03,5.300000190734863281e+00,1.399999976158142090e+00,8.994439859577596508e-09,6.984659073339116730e-09,3.597157478332519531e+00,-2.263107337057590485e-02,-2.692265808582305908e-02
2.869000000000000000e+03,5.400000095367431641e+00,1.399999976158142090e+00,9.166035930263660703e-09,7.237586974184750943e-09,3.596837520599365234e+00,-2.226665988564491272e-02,-2.634730190038681030e-02
2.870000000000000000e+03,5.500000000000000000e+00,1.399999976158142090e+00,9.337613349202911195e-09,7.495283504965755128e-09,3.596548080444335938e+00,-2.191111259162425995e-02,-2.580146305263042450e-02
2.871000000000000000e+03,5.599999904632568359e+00,1.399999976158142090e+00,9.509173004573767685e-09,7.757751774306598236e-09,3.596286773681640625e+00,-2.156593650579452515e-02,-2.528507821261882782e-02
2.872000000000000000e+03,5.699999809265136719e+00,1.399999976158142090e+00,9.680716672733069572e-09,8.024990449939650716e-09,3.596051216125488281e+00,-2.123232744634151459e-02,-2.479791641235351562e-02
2.873000000000000000e+03,5.800000190734863281e+00,1.399999976158142090e+00,9.852246130037656258e-09,8.297003084578591370e-09,3.595839023590087891e+00,-2.091120183467864990e-02,-2.433961816132068634e-02
2.874000000000000000e+03,5.900000095367431641e+00,1.399999976158142090e+00,1.002376226466594744e-08,8.573787901866580796e-09,3.595648527145385742e+00,-2.060324326157569885e-02,-2.390930056571960449e-02
2.875000000000000000e+03,6.000000000000000000e+00,1.399999976158142090e+00,1.019526507661794312e-08,8.855345789982038696e-09,3.595477819442749023e+00,-2.030891925096511841e-02,-2.350647561252117157e-02
2.876000000000000000e+03,6.099999904632568359e+00,1.399999976158142090e+00,1.036675723042890240e-08,9.141676748924965068e-09,3.595324993133544922e+00,-2.002851851284503937e-02,-2.313018403947353363e-02
2.877000000000000000e+03,6.199999809265136719e+00,1.399999976158142090e+00,1.053823872609882528e-08,9.432781666873779614e-09,3.595188617706298828e+00,-1.976217888295650482e-02,-2.277946472167968750e-02
2.878000000000000000e+03,6.300000190734863281e+00,1.399999976158142090e+00,1.070971133998455116e-08,9.728661432006902032e-09,3.595067024230957031e+00,-1.950989663600921631e-02,-2.245337888598442078e-02
2.879000000000000000e+03,6.400000095367431641e+00,1.399999976158142090e+00,1.088117507208608004e-08,1.002931337978907322e-08,3.594959259033203125e+00,-1.927156932651996613e-02,-2.215058542788028717e-02
2.880000000000000000e+03,6.500000000000000000e+00,1.399999976158142090e+00,1.105263081058183161e-08,1.033473751022029319e-08,3.594863653182983398e+00,-1.904698461294174194e-02,-2.187025360763072968e-02
2.881000000000000000e+03,6.599999904632568359e+00,1.399999976158142090e+00,1.122408033182864528e-08,1.064493382330056193e-08,3.594779491424560547e+00,-1.883586309850215912e-02,-2.161117270588874817e-02
2.882000000000000000e+03,6.699999809265136719e+00,1.399999976158142090e+00,1.139552274764810136e-08,1.095990320720829914e-08,3.594705104827880859e+00,-1.863785646855831146e-02,-2.137221954762935638e-02
2.883000000000000000e+03,6.800000190734863281e+00,1.399999976158142090e+00,1.156695983439703923e-08,1.127964566194350482e-08,3.594640016555786133e+00,-1.845256052911281586e-02,-2.115236409008502960e-02
2.884000000000000000e+03,6.900000095367431641e+00,1.399999976158142090e+00,1.173839159207545890e-08,1.160415674661408048e-08,3.594583272933959961e+00,-1.827953755855560303e-02,-2.095022983849048615e-02
2.885000000000000000e+03,7.000000000000000000e+00,1.399999976158142090e+00,1.190981890886178007e-08,1.193344001393370490e-08,3.594533920288085938e+00,-1.811831444501876831e-02,-2.076500654220581055e-02
2.886000000000000000e+03,7.099999904632568359e+00,1.399999976158142090e+00,1.208124178475600274e-08,1.226749191118869931e-08,3.594491004943847656e+00,-1.796839572489261627e-02,-2.059554867446422577e-02
2.887000000000000000e+03,7.199999809265136719e+00,1.399999976158142090e+00,1.225266021975812691e-08,1.260631421473590308e-08,3.594454288482666016e+00,-1.782926917076110840e-02,-2.044083178043365479e-02
2.888000000000000000e+03,7.300000190734863281e+00,1.399999976158142090e+00,1.242407687840341168e-08,1.294990692457531622e-08,3.594422817230224609e+00,-1.770041324198246002e-02,-2.029995433986186981e-02
2.889000000000000000e+03,7.400000095367431641e+00,1.399999976158142090e+00,1.259548998433501765e-08,1.329826648799325994e-08,3.594396114349365234e+00,-1.758131012320518494e-02,-2.017169632017612457e-02
2.890000000000000000e+03,7.500000000000000000e+00,1.399999976158142090e+00,1.276689953755294482e-08,1.365139379316815393e-08,3.594373703002929688e+00,-1.747143082320690155e-02,-2.005541510879993439e-02
2.891000000000000000e+03,7.599999904632568359e+00,1.399999976158142090e+00,1.293830731441403259e-08,1.400928795192157850e-08,3.594355106353759766e+00,-1.737026311457157135e-02,-1.995015889406204224e-02
2.892000000000000000e+03,7.699999809265136719e+00,1.399999976158142090e+00,1.310971331491828096e-08,1.437194985243195333e-08,3.594339847564697266e+00,-1.727729476988315582e-02,-1.985509693622589111e-02
2.893000000000000000e+03,7.800000190734863281e+00,1.399999976158142090e+00,1.328111842724410963e-08,1.473937949469927844e-08,3.594327449798583984e+00,-1.719202846288681030e-02,-1.976953260600566864e-02
2.894000000000000000e+03,7.900000095367431641e+00,1.399999976158142090e+00,1.345251998685625949e-08,1.511157243783145532e-08,3.594317674636840820e+00,-1.711397990584373474e-02,-1.969245821237564087e-02
2.895000000000000000e+03,8.000000000000000000e+00,1.399999976158142090e+00,1.362392154646840936e-08,1.548853312272058247e-08,3.594310045242309570e+00,-1.704268157482147217e-02,-1.962344162166118622e-02
2.896000000000000000e+03,8.100000381469726562e+00,1.399999976158142090e+00,1.379532221790213953e-08,1.587025799665298109e-08,3.594304561614990234e+00,-1.697768084704875946e-02,-1.956183090806007385e-02
2.897000000000000000e+03,8.199999809265136719e+00,1.399999976158142090e+00,1.396671933662219089e-08,1.625674528327181179e-08,3.594300746917724609e+00,-1.691854186356067657e-02,-1.950664259493350983e-02
2.898000000000000000e+03,8.300000190734863281e+00,1.399999976158142090e+00,1.413811823169908166e-08,1.664800031164759275e-08,3.594298362731933594e+00,-1.686485297977924347e-02,-1.945793814957141876e-02
2.899000000000000000e+03,8.399999618530273438e+00,1.399999976158142090e+00,1.430951446224071333e-08,1.704401419999612699e-08,3.594297170639038086e+00,-1.681621372699737549e-02,-1.941444911062717438e-02
2.900000000000000000e+03,8.500000000000000000e+00,1.399999976158142090e+00,1.448091158096076470e-08,1.744479583010161150e-08,3.594297170639038086e+00,-1.677224971354007721e-02,-1.937640458345413208e-02
2.901000000000000000e+03,8.600000381469726562e+00,1.399999976158142090e+00,1.465230869968081606e-08,1.785033987289352808e-08,3.594298124313354492e+00,-1.673260144889354706e-02,-1.934278756380081177e-02
2.902000000000000000e+03,8.699999809265136719e+00,1.399999976158142090e+00,1.482370315386560833e-08,1.826064277565819793e-08,3.594299793243408203e+00,-1.669693365693092346e-02,-1.931316591799259186e-02
2.903000000000000000e+03,8.800000190734863281e+00,1.399999976158142090e+00,1.499509849622882030e-08,1.867571342017981806e-08,3.594301939010620117e+00,-1.666492596268653870e-02,-1.928768679499626160e-02
2.904000000000000000e+03,8.899999618530273438e+00,1.399999976158142090e+00,1.516649383859203226e-08,1.909554114831735205e-08,3.594304800033569336e+00,-1.663627848029136658e-02,-1.926524937152862549e-02
2.905000000000000000e+03,9.000000000000000000e+00,1.399999976158142090e+00,1.533788918095524423e-08,1.952013484185499692e-08,3.594307899475097656e+00,-1.661071181297302246e-02,-1.924624107778072357e-02
2.906000000000000000e+03,9.100000381469726562e+00,1.399999976158142090e+00,1.550928452331845619e-08,1.994949094807907386e-08,3.594311475753784180e+00,-1.658795960247516632e-02,-1.922980323433876038e-02
2.907000000000000000e+03,9.199999809265136719e+00,1.399999976158142090e+00,1.568067808932482876e-08,2.038360236156222527e-08,3.594315290451049805e+00,-1.656777784228324890e-02,-1.921564340591430664e-02
2.908000000000000000e+03,9.300000190734863281e+00,1.399999976158142090e+00,1.585207343168804073e-08,2.082247974044548755e-08,3.594319105148315430e+00,-1.654993742704391479e-02,-1.920404657721519470e-02
2.909000000000000000e+03,9.399999618530273438e+00,1.399999976158142090e+00,1.602346699769441329e-08,2.126611420294466370e-08,3.594323158264160156e+00,-1.653422228991985321e-02,-1.919404044747352600e-02
2.910000000000000000e+03,9.500000000000000000e+00,1.399999976158142090e+00,1.619486056370078586e-08,2.171451463084395073e-08,3.594327211380004883e+00,-1.652043685317039490e-02,-1.918613538146018982e-02
2.911000000000000000e+03,9.600000381469726562e+00,1.399999976158142090e+00,1.636625590606399783e-08,2.216767391871599102e-08,3.594331502914428711e+00,-1.650839671492576599e-02,-1.917958073318004608e-02
2.912000000000000000e+03,9.699999809265136719e+00,1.399999976158142090e+00,1.653764947207037039e-08,2.262559029020394519e-08,3.594335556030273438e+00,-1.649793237447738647e-02,-1.917419396340847015e-02
2.913000000000000000e+03,9.800000190734863281e+00,1.399999976158142090e+00,1.670904481443358236e-08,2.308827085073517082e-08,3.594339609146118164e+00,-1.648888736963272095e-02,-1.917035691440105438e-02
2.914000000000000000e+03,9.899999618530273438e+00,1.399999976158142090e+00,1.688043838043995493e-08,2.355570849488231033e-08,3.594343662261962891e+00,-1.648111827671527863e-02,-1.916719041764736176e-02
2.915000000000000000e+03,1.000000000000000000e+01,1.399999976158142090e+00,1.705183372280316689e-08,2.402790855171588191e-08,3.594347476959228516e+00,-1.647448912262916565e-02,-1.916528865694999695e-02
2.916000000000000000e+03,1.010000038146972656e+01,1.399999976158142090e+00,1.722322906516637886e-08,2.450487102123588556e-08,3.594351291656494141e+00,-1.646888256072998047e-02,-1.916398666799068451e-02
2.917000000000000000e+03,1.019999980926513672e+01,1.399999976158142090e+00,1.739462440752959083e-08,2.498658702165812429e-08,3.594354867935180664e+00,-1.646418683230876923e-02,-1.916315592825412750e-02
2.918000000000000000e+03,1.030000019073486328e+01,1.399999976158142090e+00,1.756601974989280279e-08,2.547306721112363448e-08,3.594358205795288086e+00,-1.646029762923717499e-02,-1.916327886283397675e-02
2.919000000000000000e+03,1.039999961853027344e+01,1.399999976158142090e+00,1.773741331589917536e-08,2.596430270784821914e-08,3.594361543655395508e+00,-1.645712368190288544e-02,-1.916350051760673523e-02
2.920000000000000000e+03,1.050000000000000000e+01,1.399999976158142090e+00,1.790881043461922673e-08,2.646030239361607528e-08,3.594364881515502930e+00,-1.645458117127418518e-02,-1.916451007127761841e-02
2.921000000000000000e+03,1.060000038146972656e+01,1.399999976158142090e+00,1.808020577698243869e-08,2.696106271571352409e-08,3.594367742538452148e+00,-1.645259372889995575e-02,-1.916566118597984314e-02
2.922000000000000000e+03,1.069999980926513672e+01,1.399999976158142090e+00,1.825160111934565066e-08,2.746657656871320796e-08,3.594370841979980469e+00,-1.645109057426452637e-02,-1.916689239442348480e-02
2.923000000000000000e+03,1.080000019073486328e+01,1.399999976158142090e+00,1.842299646170886263e-08,2.797685461075616331e-08,3.594373464584350586e+00,-1.645001024007797241e-02,-1.916872896254062653e-02
2.924000000000000000e+03,1.089999961853027344e+01,1.399999976158142090e+00,1.859439180407207459e-08,2.849188796005819313e-08,3.594376087188720703e+00,-1.644929684698581696e-02,-1.917034946382045746e-02
2.925000000000000000e+03,1.100000000000000000e+01,1.399999976158142090e+00,1.876578714643528656e-08,2.901168549840349442e-08,3.594378471374511719e+00,-1.644889824092388153e-02,-1.917248405516147614e-02
2.926000000000000000e+03,1.110000038146972656e+01,1.399999976158142090e+00,1.893718426515533793e-08,2.953624189672154898e-08,3.594380617141723633e+00,-1.644876971840858459e-02,-1.917451992630958557e-02
2.927000000000000000e+03,1.119999980926513672e+01,1.399999976158142090e+00,1.910857960751854989e-08,3.006555360229867802e-08,3.594382762908935547e+00,-1.644887030124664307e-02,-1.917642541229724884e-02
2.928000000000000000e+03,1.130000019073486328e+01,1.399999976158142090e+00,1.927997672623860126e-08,3.059962594420539972e-08,3.594384670257568359e+00,-1.644916273653507233e-02,-1.917874999344348907e-02
2.929000000000000000e+03,1.139999961853027344e+01,1.399999976158142090e+00,1.945137206860181323e-08,3.113845536972803529e-08,3.594386577606201172e+00,-1.644961535930633545e-02,-1.918070018291473389e-02
2.930000000000000000e+03,1.150000000000000000e+01,1.399999976158142090e+00,1.962276918732186459e-08,3.168204898429394234e-08,3.594388246536254883e+00,-1.645020209252834320e-02,-1.918302662670612335e-02
2.931000000000000000e+03,1.160000038146972656e+01,1.399999976158142090e+00,1.979416630604191596e-08,3.223040323518944206e-08,3.594389915466308594e+00,-1.645089313387870789e-02,-1.918513514101505280e-02
2.932000000000000000e+03,1.169999980926513672e+01,1.399999976158142090e+00,1.996556164840512793e-08,3.278350746427349804e-08,3.594391345977783203e+00,-1.645166799426078796e-02,-1.918701268732547760e-02
2.933000000000000000e+03,1.180000019073486328e+01,1.399999976158142090e+00,2.013695876712517929e-08,3.334137943511450430e-08,3.594392776489257812e+00,-1.645250804722309113e-02,-1.918922364711761475e-02
2.934000000000000000e+03,1.189999961853027344e+01,1.399999976158142090e+00,2.030835410948839126e-08,3.390400138414406683e-08,3.594393968582153320e+00,-1.645339466631412506e-02,-1.919099129736423492e-02
2.935000000000000000e+03,1.200000000000000000e+01,1.399999976158142090e+00,2.047975122820844263e-08,3.447139107493057963e-08,3.594395160675048828e+00,-1.645431295037269592e-02,-1.919307745993137360e-02
2.936000000000000000e+03,1.210000038146972656e+01,1.399999976158142090e+00,2.065114834692849399e-08,3.504354140204668511e-08,3.594396114349365234e+00,-1.645525172352790833e-02,-1.919489912688732147e-02
2.937000000000000000e+03,1.219999980926513672e+01,1.399999976158142090e+00,2.082254546564854536e-08,3.562044170735134685e-08,3.594397068023681641e+00,-1.645619980990886688e-02,-1.919645071029663086e-02
2.938000000000000000e+03,1.230000019073486328e+01,1.399999976158142090e+00,2.099394258436859673e-08,3.620210620169928006e-08,3.594398021697998047e+00,-1.645714789628982544e-02,-1.919830963015556335e-02
2.939000000000000000e+03,1.239999961853027344e+01,1.399999976158142090e+00,2.116533792673180869e-08,3.678852777966312715e-08,3.594398975372314453e+00,-1.645808480679988861e-02,-1.919970288872718811e-02
2.940000000000000000e+03,1.250000000000000000e+01,1.399999976158142090e+00,2.133673682180869946e-08,3.737970999395656690e-08,3.594399690628051758e+00,-1.645900867879390717e-02,-1.920139789581298828e-02
2.941000000000000000e+03,1.260000038146972656e+01,1.399999976158142090e+00,2.150813394052875083e-08,3.797565639729327813e-08,3.594400167465209961e+00,-1.645991206169128418e-02,-1.920281909406185150e-02
2.942000000000000000e+03,1.269999980926513672e+01,1.399999976158142090e+00,2.167952928289196279e-08,3.857635277881854563e-08,3.594400882720947266e+00,-1.646078936755657196e-02,-1.920396834611892700e-02
2.943000000000000000e+03,1.280000019073486328e+01,1.399999976158142090e+00,2.185092817796885356e-08,3.918181334938708460e-08,3.594401359558105469e+00,-1.646163873374462128e-02,-1.920542120933532715e-02
2.944000000000000000e+03,1.289999961853027344e+01,1.399999976158142090e+00,2.202232352033206553e-08,3.979202745085785864e-08,3.594401836395263672e+00,-1.646245643496513367e-02,-1.920641213655471802e-02
2.945000000000000000e+03,1.300000000000000000e+01,1.399999976158142090e+00,2.219372241540895629e-08,4.040700929408558295e-08,3.594402313232421875e+00,-1.646324247121810913e-02,-1.920771226286888123e-02
2.946000000000000000e+03,1.310000038146972656e+01,1.399999976158142090e+00,2.236511953412900766e-08,4.102674822092922113e-08,3.594402790069580078e+00,-1.646399311721324921e-02,-1.920874789357185364e-02
2.947000000000000000e+03,1.319999980926513672e+01,1.399999976158142090e+00,2.253651665284905903e-08,4.165123712596141559e-08,3.594403028488159180e+00,-1.646471023559570312e-02,-1.920951902866363525e-02
2.948000000000000000e+03,1.330000019073486328e+01,1.399999976158142090e+00,2.270791377156911039e-08,4.228049377275056031e-08,3.594403505325317383e+00,-1.646539010107517242e-02,-1.921060681343078613e-02
2.949000000000000000e+03,1.339999961853027344e+01,1.399999976158142090e+00,2.287931089028916176e-08,4.291450395044194011e-08,3.594403743743896484e+00,-1.646603643894195557e-02,-1.921124383807182312e-02
2.950000000000000000e+03,1.350000000000000000e+01,1.399999976158142090e+00,2.305070800900921313e-08,4.355327831717659137e-08,3.594403982162475586e+00,-1.646664924919605255e-02,-1.921220496296882629e-02
2.951000000000000000e+03,1.360000038146972656e+01,1.399999976158142090e+00,2.322210690408610390e-08,4.419681332024083531e-08,3.594404220581054688e+00,-1.646722853183746338e-02,-1.921291276812553406e-02
2.952000000000000000e+03,1.369999980926513672e+01,1.399999976158142090e+00,2.339350224644931586e-08,4.484510185420731432e-08,3.594404220581054688e+00,-1.646777428686618805e-02,-1.921337470412254333e-02
2.953000000000000000e+03,1.380000019073486328e+01,1.399999976158142090e+00,2.356490114152620663e-08,4.549815102450338600e-08,3.594404458999633789e+00,-1.646829210221767426e-02,-1.921416632831096649e-02
2.954000000000000000e+03,1.389999961853027344e+01,1.399999976158142090e+00,2.373629648388941860e-08,4.615595727841537155e-08,3.594404458999633789e+00,-1.646878197789192200e-02,-1.921452209353446960e-02
2.955000000000000000e+03,1.400000000000000000e+01,1.399999976158142090e+00,2.390769537896630936e-08,4.681852772137062857e-08,3.594404697418212891e+00,-1.646924577653408051e-02,-1.921521686017513275e-02
2.956000000000000000e+03,1.410000038146972656e+01,1.399999976158142090e+00,2.407909249768636073e-08,4.748585880065547826e-08,3.594404697418212891e+00,-1.646968908607959747e-02,-1.921567134559154510e-02
2.957000000000000000e+03,1.419999980926513672e+01,1.399999976158142090e+00,2.425048961640641210e-08,4.815793985812888423e-08,3.594404935836791992e+00,-1.647011190652847290e-02,-1.921589300036430359e-02
2.958000000000000000e+03,1.430000019073486328e+01,1.399999976158142090e+00,2.442188851148330286e-08,4.883478510464556166e-08,3.594404935836791992e+00,-1.647051796317100525e-02,-1.921645738184452057e-02
2.959000000000000000e+03,1.439999961853027344e+01,1.399999976158142090e+00,2.459328385384651483e-08,4.951638743477815297e-08,3.594404935836791992e+00,-1.647091470658779144e-02,-1.921659894287586212e-02
2.960000000000000000e+03,1.450000000000000000e+01,1.399999976158142090e+00,2.476468274892340560e-08,5.020275040124033694e-08,3.594404935836791992e+00,-1.647130399942398071e-02,-1.921708881855010986e-02
2.961000000000000000e+03,1.460000038146972656e+01,1.399999976158142090e+00,2.493607986764345696e-08,5.089387755674579239e-08,3.594405174255371094e+00,-1.647169142961502075e-02,-1.921735331416130066e-02
2.962000000000000000e+03,1.469999980926513672e+01,1.399999976158142090e+00,2.510747698636350833e-08,5.158975469043980411e-08,3.594405174255371094e+00,-1.647208258509635925e-02,-1.921739056706428528e-02
2.963000000000000000e+03,1.480000019073486328e+01,1.399999976158142090e+00,2.527887588144039910e-08,5.229039601317708730e-08,3.594405174255371094e+00,-1.647248491644859314e-02,-1.921777985990047455e-02
2.964000000000000000e+03,1.489999961853027344e+01,1.399999976158142090e+00,2.545027122380361106e-08,5.299579086681660556e-08,3.594405174255371094e+00,-1.647290587425231934e-02,-1.921775192022323608e-02
2.965000000000000000e+03,1.500000000000000000e+01,1.399999976158142090e+00,2.562167011888050183e-08,5.370595346221307409e-08,3.594405412673950195e+00,-1.647335477173328400e-02,-1.921807974576950073e-02
2.966000000000000000e+03,1.510000038146972656e+01,1.399999976158142090e+00,2.579306723760055320e-08,5.442087314122545649e-08,3.594405412673950195e+00,-1.647383905947208405e-02,-1.921818405389785767e-02
2.967000000000000000e+03,1.519999980926513672e+01,1.399999976158142090e+00,2.596446435632060457e-08,5.514054635114007397e-08,3.594405412673950195e+00,-1.647436991333961487e-02,-1.921806484460830688e-02
2.968000000000000000e+03,1.530000019073486328e+01,1.399999976158142090e+00,2.613586325139749533e-08,5.586498375009796291e-08,3.594405651092529297e+00,-1.647496223449707031e-02,-1.921830140054225922e-02
2.969000000000000000e+03,1.539999961853027344e+01,1.399999976158142090e+00,2.630725859376070730e-08,5.659417467995808693e-08,3.594405889511108398e+00,-1.647562533617019653e-02,-1.921811886131763458e-02
2.970000000000000000e+03,1.550000000000000000e+01,1.399999976158142090e+00,2.647865748883759807e-08,5.732812979886148241e-08,3.594406127929687500e+00,-1.647637970745563507e-02,-1.921829022467136383e-02
2.971000000000000000e+03,1.560000038146972656e+01,1.399999976158142090e+00,2.665005638391448883e-08,5.806684555409447057e-08,3.594406366348266602e+00,-1.647724024951457977e-02,-1.921823434531688690e-02
2.972000000000000000e+03,1.569999980926513672e+01,1.399999976158142090e+00,2.682145172627770080e-08,5.881031128751601500e-08,3.594406843185424805e+00,-1.647822931408882141e-02,-1.921794936060905457e-02
2.973000000000000000e+03,1.580000019073486328e+01,1.399999976158142090e+00,2.699285062135459157e-08,5.955854831540818850e-08,3.594407320022583008e+00,-1.647936925292015076e-02,-1.921801082789897919e-02
2.974000000000000000e+03,1.589999961853027344e+01,1.399999976158142090e+00,2.716424774007464293e-08,6.031153532148891827e-08,3.594408035278320312e+00,-1.648068241775035858e-02,-1.921764574944972992e-02
2.975000000000000000e+03,1.600000000000000000e+01,1.399999976158142090e+00,2.733564663515153370e-08,6.106928651661291951e-08,3.594408750534057617e+00,-1.648220233619213104e-02,-1.921762153506278992e-02
2.976000000000000000e+03,1.610000038146972656e+01,1.399999976158142090e+00,2.750704375387158507e-08,6.183179834806651343e-08,3.594409704208374023e+00,-1.648395694792270660e-02,-1.921735703945159912e-02
2.977000000000000000e+03,1.620000076293945312e+01,1.399999976158142090e+00,2.767844264894847583e-08,6.259906371042234241e-08,3.594410896301269531e+00,-1.648598536849021912e-02,-1.921704225242137909e-02
2.978000000000000000e+03,1.629999923706054688e+01,1.399999976158142090e+00,2.784983799131168780e-08,6.337108260368040646e-08,3.594412326812744141e+00,-1.648832485079765320e-02,-1.921628788113594055e-02
2.979000000000000000e+03,1.639999961853027344e+01,1.399999976158142090e+00,2.802123688638857857e-08,6.414786923869542079e-08,3.594413995742797852e+00,-1.649102009832859039e-02,-1.921624317765235901e-02
2.980000000000000000e+03,1.650000000000000000e+01,1.399999976158142090e+00,2.819263578146546934e-08,6.492941651004002779e-08,3.594416141510009766e+00,-1.649411953985691071e-02,-1.921575330197811127e-02
2.981000000000000000e+03,1.660000038146972656e+01,1.399999976158142090e+00,2.836403467654236010e-08,6.571572441771422746e-08,3.594418764114379883e+00,-1.649767532944679260e-02,-1.921520195901393890e-02
2.982000000000000000e+03,1.670000076293945312e+01,1.399999976158142090e+00,2.853543534797609027e-08,6.650678585629066220e-08,3.594421625137329102e+00,-1.650174148380756378e-02,-1.921458356082439423e-02
2.983000000000000000e+03,1.679999923706054688e+01,1.399999976158142090e+00,2.870683069033930224e-08,6.730259372034197440e-08,3.594425201416015625e+00,-1.650638133287429810e-02,-1.921351812779903412e-02
2.984000000000000000e+03,1.689999961853027344e+01,1.399999976158142090e+00,2.887823136177303240e-08,6.810317643157759449e-08,3.594429492950439453e+00,-1.651165820658206940e-02,-1.921316049993038177e-02
2.985000000000000000e+03,1.700000000000000000e+01,1.399999976158142090e+00,2.904963025684992317e-08,6.890851977914280724e-08,3.594434499740600586e+00,-1.651763729751110077e-02,-1.921236701309680939e-02
2.986000000000000000e+03,1.710000038146972656e+01,1.399999976158142090e+00,2.922103092828365334e-08,6.971862376303761266e-08,3.594440460205078125e+00,-1.652438752353191376e-02,-1.921153254806995392e-02
2.987000000000000000e+03,1.720000076293945312e+01,1.399999976158142090e+00,2.939243337607422291e-08,7.053348127783465316e-08,3.594447374343872070e+00,-1.653197780251502991e-02,-1.921067759394645691e-02
2.988000000000000000e+03,1.729999923706054688e+01,1.399999976158142090e+00,2.956383049479427427e-08,7.135308521810657112e-08,3.594455480575561523e+00,-1.654047332704067230e-02,-1.920944638550281525e-02
2.989000000000000000e+03,1.739999961853027344e+01,1.399999976158142090e+00,2.973523294258484384e-08,7.217746400556279696e-08,3.594465017318725586e+00,-1.654992997646331787e-02,-1.920903101563453674e-02
2.990000000000000000e+03,1.750000000000000000e+01,1.399999976158142090e+00,2.990663716673225281e-08,7.300660342934861546e-08,3.594475984573364258e+00,-1.656039990484714508e-02,-1.920833997428417206e-02
2.991000000000000000e+03,1.760000038146972656e+01,1.399999976158142090e+00,3.007803783816598298e-08,7.384049638403666904e-08,3.594488620758056641e+00,-1.657190918922424316e-02,-1.920782774686813354e-02
2.992000000000000000e+03,1.770000076293945312e+01,1.399999976158142090e+00,3.024944206231339194e-08,7.467915708048167289e-08,3.594503164291381836e+00,-1.658446714282035828e-02,-1.920759864151477814e-02
2.993000000000000000e+03,1.779999923706054688e+01,1.399999976158142090e+00,3.042084628646080091e-08,7.552254999154683901e-08,3.594519853591918945e+00,-1.659804023802280426e-02,-1.920739561319351196e-02
2.994000000000000000e+03,1.789999961853027344e+01,1.399999976158142090e+00,3.059225051060820988e-08,7.637072485522367060e-08,3.594538927078247070e+00,-1.661254465579986572e-02,-1.920853927731513977e-02
2.995000000000000000e+03,1.800000000000000000e+01,1.399999976158142090e+00,3.076365828746929765e-08,7.722365324980273726e-08,3.594560623168945312e+00,-1.662782765924930573e-02,-1.921008713543415070e-02
2.996000000000000000e+03,1.810000038146972656e+01,1.399999976158142090e+00,3.093506961704406422e-08,7.808134228071139660e-08,3.594585180282592773e+00,-1.664363965392112732e-02,-1.921267993748188019e-02
2.997000000000000000e+03,1.820000076293945312e+01,1.399999976158142090e+00,3.110648094661883079e-08,7.894379194794964860e-08,3.594612598419189453e+00,-1.665960811078548431e-02,-1.921662874519824982e-02
2.998000000000000000e+03,1.829999923706054688e+01,1.399999976158142090e+00,3.127788872347991855e-08,7.981098093523542047e-08,3.594643115997314453e+00,-1.667519472539424896e-02,-1.922191493213176727e-02
2.999000000000000000e+03,1.839999961853027344e+01,1.399999976158142090e+00,3.144930360576836392e-08,8.068294476970550022e-08,3.594676971435546875e+00,-1.668965071439743042e-02,-1.923011243343353271e-02
3.000000000000000000e+03,1.850000000000000000e+01,1.399999976158142090e+00,3.162071848805680929e-08,8.155966213507781504e-08,3.594713926315307617e+00,-1.670196466147899628e-02,-1.924052461981773376e-02
3.001000000000000000e+03,1.860000038146972656e+01,1.399999976158142090e+00,3.179213692305893346e-08,8.244114724220708013e-08,3.594753742218017578e+00,-1.671079732477664948e-02,-1.925400085747241974e-02
3.002000000000000000e+03,1.870000076293945312e+01,1.399999976158142090e+00,3.196355891077473643e-08,8.332737877481122268e-08,3.594796419143676758e+00,-1.671442762017250061e-02,-1.927097514271736145e-02
3.003000000000000000e+03,1.879999923706054688e+01,1.399999976158142090e+00,3.213497734577686060e-08,8.421835673289024271e-08,3.594840764999389648e+00,-1.671069301664829254e-02,-1.929137296974658966e-02
3.004000000000000000e+03,1.889999961853027344e+01,1.399999976158142090e+00,3.230639933349266357e-08,8.511410953815357061e-08,3.594886302947998047e+00,-1.669698767364025116e-02,-1.931643672287464142e-02
3.005000000000000000e+03,1.900000000000000000e+01,1.399999976158142090e+00,3.247782487392214534e-08,8.601461587431913358e-08,3.594931840896606445e+00,-1.667028106749057770e-02,-1.934471540153026581e-02
3.006000000000000000e+03,1.910000038146972656e+01,1.399999976158142090e+00,3.264925396706530591e-08,8.691988284681428922e-08,3.594975709915161133e+00,-1.662726886570453644e-02,-1.937572658061981201e-02
3.007000000000000000e+03,1.920000076293945312e+01,1.399999976158142090e+00,3.282068306020846649e-08,8.782990335021167994e-08,3.595016002655029297e+00,-1.656464301049709320e-02,-1.940782554447650909e-02
3.008000000000000000e+03,1.929999923706054688e+01,1.399999976158142090e+00,3.299210860063794826e-08,8.874466317365659052e-08,3.595051288604736328e+00,-1.647954806685447693e-02,-1.943803206086158752e-02
3.009000000000000000e+03,1.939999961853027344e+01,1.399999976158142090e+00,3.316353769378110883e-08,8.966420494971316657e-08,3.595079660415649414e+00,-1.637020334601402283e-02,-1.946387253701686859e-02
3.010000000000000000e+03,1.950000000000000000e+01,1.399999976158142090e+00,3.333496323421059060e-08,9.058850736209933530e-08,3.595099925994873047e+00,-1.623664982616901398e-02,-1.947962306439876556e-02
3.011000000000000000e+03,1.960000038146972656e+01,1.399999976158142090e+00,3.350639232735375117e-08,9.151756330538773909e-08,3.595111608505249023e+00,-1.608144864439964294e-02,-1.948051340878009796e-02
3.012000000000000000e+03,1.970000076293945312e+01,1.399999976158142090e+00,3.367781431506955414e-08,9.245139409586045076e-08,3.595115184783935547e+00,-1.591012440621852875e-02,-1.946142502129077911e-02
3.013000000000000000e+03,1.979999923706054688e+01,1.399999976158142090e+00,3.384923275007167831e-08,9.338996420638068230e-08,3.595112562179565430e+00,-1.573107577860355377e-02,-1.941776089370250702e-02
3.014000000000000000e+03,1.989999961853027344e+01,1.399999976158142090e+00,3.402065118507380248e-08,9.433333048036729451e-08,3.595107078552246094e+00,-1.555479969829320908e-02,-1.934825628995895386e-02
3.015000000000000000e+03,2.000000000000000000e+01,1.399999976158142090e+00,3.419206606736224785e-08,9.528146449611085700e-08,3.595102071762084961e+00,-1.539253443479537964e-02,-1.925183832645416260e-02
3.016000000000000000e+03,0.000000000000000000e+00,1.500000000000000000e+00,1.662863266221407382e-37,5.045666030362697696e-38,3.311069250106811523e+00,9.933207631111145020e-01,8.817754685878753662e-02
3.017000000000000000e+03,1.000000014901161194e-01,1.500000000000000000e+00,1.434796725874321055e-10,1.091722025281516295e-11,3.282230615615844727e+00,8.971924781799316406e-01,5.322550609707832336e-02
3.018000000000000000e+03,2.000000029802322388e-01,1.500000000000000000e+00,2.895580719641799305e-10,2.917271979541169458e-11,3.313212871551513672e+00,8.185540437698364258e-01,7.596794515848159790e-02
3.019000000000000000e+03,3.000000119209289551e-01,1.500000000000000000e+00,4.382046392414906677e-10,5.427399155100154360e-11,3.343781471252441406e+00,7.406808733940124512e-01,9.319903701543807983e-02
3.020000000000000000e+03,4.000000059604644775e-01,1.500000000000000000e+00,5.893444066096265033e-10,8.572678678042677802e-11,3.373367309570312500e+00,6.647728681564331055e-01,1.050295531749725342e-01
3.021000000000000000e+03,5.000000000000000000e-01,1.500000000000000000e+00,7.428603288062163301e-10,1.230525681350513878e-10,3.401415824890136719e+00,5.919392704963684082e-01,1.117851510643959045e-01
3.022000000000000000e+03,6.000000238418579102e-01,1.500000000000000000e+00,8.985985289200471016e-10,1.658047033004095283e-10,3.427435398101806641e+00,5.231108069419860840e-01,1.139762699604034424e-01
3.023000000000000000e+03,6.999999880790710449e-01,1.500000000000000000e+00,1.056376652819324136e-09,2.135813192971625085e-10,3.451037883758544922e+00,4.589846730232238770e-01,1.122472882270812988e-01
3.024000000000000000e+03,8.000000119209289551e-01,1.500000000000000000e+00,1.215993861158892742e-09,2.660343889626659575e-10,3.471961736679077148e+00,4.000040888786315918e-01,1.073160097002983093e-01
3.025000000000000000e+03,8.999999761581420898e-01,1.500000000000000000e+00,1.377239988720191377e-09,3.228738665317365530e-10,3.490080595016479492e+00,3.463703691959381104e-01,9.991482645273208618e-02
3.026000000000000000e+03,1.000000000000000000e+00,1.500000000000000000e+00,1.539905314373868350e-09,3.838682149925887188e-10,3.505393743515014648e+00,2.980763018131256104e-01,9.074120223522186279e-02
3.027000000000000000e+03,1.100000023841857910e+00,1.500000000000000000e+00,1.703787333440232032e-09,4.488411586844875956e-10,3.518006086349487305e+00,2.549516260623931885e-01,8.042267709970474243e-02
3.028000000000000000e+03,1.200000047683715820e+00,1.500000000000000000e+00,1.868696308804373984e-09,5.176667428052894593e-10,3.528102397918701172e+00,2.167100310325622559e-01,6.949625909328460693e-02
3.029000000000000000e+03,1.299999952316284180e+00,1.500000000000000000e+00,2.034459267719057607e-09,5.902625055398402765e-10,3.535920858383178711e+00,1.829925477504730225e-01,5.840092524886131287e-02
3.030000000000000000e+03,1.399999976158142090e+00,1.500000000000000000e+00,2.200921445094650153e-09,6.665830665220084938e-10,3.541727066040039062e+00,1.534028798341751099e-01,4.747956618666648865e-02
3.031000000000000000e+03,1.500000000000000000e+00,1.500000000000000000e+00,2.367946949632937503e-09,7.466124385402395092e-10,3.545795440673828125e+00,1.275348663330078125e-01,3.698766976594924927e-02
3.032000000000000000e+03,1.600000023841857910e+00,1.500000000000000000e+00,2.535418097693309392e-09,8.303584486668569298e-10,3.548392295837402344e+00,1.049912571907043457e-01,2.710481546819210052e-02
3.033000000000000000e+03,1.700000047683715820e+00,1.500000000000000000e+00,2.703234747158944629e-09,9.178468540760320593e-10,3.549767017364501953e+00,8.539619296789169312e-02,1.794768497347831726e-02
3.034000000000000000e+03,1.799999952316284180e+00,1.500000000000000000e+00,2.871312076990761852e-09,1.009116346040173084e-09,3.550145626068115234e+00,6.840229779481887817e-02,9.582629427313804626e-03
3.035000000000000000e+03,1.899999976158142090e+00,1.500000000000000000e+00,3.039579699048999828e-09,1.104215274772002431e-09,3.549727439880371094e+00,5.369388684630393982e-02,2.036881400272250175e-03
3.036000000000000000e+03,2.000000000000000000e+00,1.500000000000000000e+00,3.207979215602563272e-09,1.203197652621668112e-09,3.548684835433959961e+00,4.098781198263168335e-02,-4.691399633884429932e-03
3.037000000000000000e+03,2.099999904632568359e+00,1.500000000000000000e+00,3.376462665016788378e-09,1.306121100164148174e-09,3.547165393829345703e+00,3.003235906362533569e-02,-1.062524877488613129e-02
3.038000000000000000e+03,2.200000047683715820e+00,1.500000000000000000e+00,3.544991855619628041e-09,1.413045236375864988e-09,3.545291662216186523e+00,2.060521952807903290e-02,-1.580240763723850250e-02
3.039000000000000000e+03,2.299999952316284180e+00,1.500000000000000000e+00,3.713535257077182905e-09,1.524028458987913837e-09,3.543165922164916992e+00,1.251112483441829681e-02,-2.026983909308910370e-02
3.040000000000000000e+03,2.400000095367431641e+00,1.500000000000000000e+00,3.882068444482911218e-09,1.639129498798297391e-09,3.540871143341064453e+00,5.578953307121992111e-03,-2.408043295145034790e-02
3.041000000000000000e+03,2.500000000000000000e+00,1.500000000000000000e+00,4.050572322000789427e-09,1.758403866958246908e-09,3.538475036621093750e+00,-3.407883050385862589e-04,-2.728932909667491913e-02
3.042000000000000000e+03,2.599999904632568359e+00,1.500000000000000000e+00,4.219031346508472780e-09,1.881905520306759172e-09,3.536030769348144531e+00,-5.378656554967164993e-03,-2.995245903730392456e-02
3.043000000000000000e+03,2.700000047683715820e+00,1.500000000000000000e+00,4.387435303954134724e-09,2.009685751147571864e-09,3.533581018447875977e+00,-9.648562408983707428e-03,-3.212455287575721741e-02
3.044000000000000000e+03,2.799999952316284180e+00,1.500000000000000000e+00,4.555774424375158560e-09,2.141791188847719241e-09,3.531158208847045898e+00,-1.324987318366765976e-02,-3.385806083679199219e-02
3.045000000000000000e+03,2.900000095367431641e+00,1.500000000000000000e+00,4.724044710968655636e-09,2.278267130506606009e-09,3.528787612915039062e+00,-1.626936160027980804e-02,-3.520293906331062317e-02
3.046000000000000000e+03,3.000000000000000000e+00,1.500000000000000000e+00,4.892240834664107751e-09,2.419154432331538374e-09,3.526487827301025391e+00,-1.878280006349086761e-02,-3.620551526546478271e-02
3.047000000000000000e+03,3.099999904632568359e+00,1.500000000000000000e+00,5.060361019104675506e-09,2.564491285994563441e-09,3.524271965026855469e+00,-2.085645310580730438e-02,-3.690897673368453979e-02
3.048000000000000000e+03,3.200000047683715820e+00,1.500000000000000000e+00,5.228404820201149050e-09,2.714313218632469216e-09,3.522150039672851562e+00,-2.254830300807952881e-02,-3.735283017158508301e-02
3.049000000000000000e+03,3.299999952316284180e+00,1.500000000000000000e+00,5.396371349775108683e-09,2.868651538534550127e-09,3.520127534866333008e+00,-2.390913292765617371e-02,-3.757293894886970520e-02
3.050000000000000000e+03,3.400000095367431641e+00,1.500000000000000000e+00,5.564262384183393806e-09,3.027536221722471055e-09,3.518208026885986328e+00,-2.498346939682960510e-02,-3.760208189487457275e-02
3.051000000000000000e+03,3.500000000000000000e+00,1.500000000000000000e+00,5.732078367515214268e-09,3.190992803325798377e-09,3.516393184661865234e+00,-2.581038698554039001e-02,-3.746942430734634399e-02
3.052000000000000000e+03,3.599999904632568359e+00,1.500000000000000000e+00,5.899821520216619319e-09,3.359046152340283697e-09,3.514682292938232422e+00,-2.642418816685676575e-02,-3.720138967037200928e-02
3.053000000000000000e+03,3.700000047683715820e+00,1.500000000000000000e+00,6.067494506822868061e-09,3.531718251181814594e-09,3.513074398040771484e+00,-2.685501798987388611e-02,-3.682140260934829712e-02
3.054000000000000000e+03,3.799999952316284180e+00,1.500000000000000000e+00,6.235099547780009743e-09,3.709027529552599844e-09,3.511566638946533203e+00,-2.712935768067836761e-02,-3.635011240839958191e-02
3.055000000000000000e+03,3.900000095367431641e+00,1.500000000000000000e+00,6.402639307623303466e-09,3.890992861244058076e-09,3.510156393051147461e+00,-2.727048844099044800e-02,-3.580603748559951782e-02
3.056000000000000000e+03,4.000000000000000000e+00,1.500000000000000000e+00,6.570116894977218180e-09,4.077628901200114342e-09,3.508840084075927734e+00,-2.729886583983898163e-02,-3.520511090755462646e-02
3.057000000000000000e+03,4.099999904632568359e+00,1.500000000000000000e+00,6.737534974377012986e-09,4.268950082320088768e-09,3.507613658905029297e+00,-2.723244950175285339e-02,-3.456155583262443542e-02
3.058000000000000000e+03,4.199999809265136719e+00,1.500000000000000000e+00,6.904896654447156834e-09,4.464968395012647306e-09,3.506473064422607422e+00,-2.708701044321060181e-02,-3.388756141066551208e-02
3.059000000000000000e+03,4.300000190734863281e+00,1.500000000000000000e+00,7.072205931990538375e-09,4.665696717864875609e-09,3.505414247512817383e+00,-2.687636390328407288e-02,-3.319379687309265137e-02
3.060000000000000000e+03,4.400000095367431641e+00,1.500000000000000000e+00,7.239463695185577308e-09,4.871142156304131277e-09,3.504432678222656250e+00,-2.661261521279811859e-02,-3.248908370733261108e-02
3.061000000000000000e+03,4.500000000000000000e+00,1.500000000000000000e+00,7.406673940835162284e-09,5.081314036203821161e-09,3.503524303436279297e+00,-2.630633302032947540e-02,-3.178143501281738281e-02
3.062000000000000000e+03,4.599999904632568359e+00,1.500000000000000000e+00,7.573839333474552404e-09,5.296220795258932412e-09,3.502685070037841797e+00,-2.596672996878623962e-02,-3.107731603085994720e-02
3.063000000000000000e+03,4.699999809265136719e+00,1.500000000000000000e+00,7.740962537639006769e-09,5.515868206629193082e-09,3.501910686492919922e+00,-2.560182102024555206e-02,-3.038221411406993866e-02
3.064000000000000000e+03,4.800000190734863281e+00,1.500000000000000000e+00,7.908046661952994327e-09,5.740262931652750922e-09,3.501197338104248047e+00,-2.521854639053344727e-02,-2.970075421035289764e-02
3.065000000000000000e+03,4.900000095367431641e+00,1.500000000000000000e+00,8.075093482773354481e-09,5.969407634864865031e-09,3.500540971755981445e+00,-2.482290193438529968e-02,-2.903638593852519989e-02
3.066000000000000000e+03,5.000000000000000000e+00,1.500000000000000000e+00,8.242106552813766029e-09,6.203308089425263461e-09,3.499938011169433594e+00,-2.442003414034843445e-02,-2.839234843850135803e-02
3.067000000000000000e+03,5.099999904632568359e+00,1.500000000000000000e+00,8.409086760252648673e-09,6.441967848047625012e-09,3.499385118484497070e+00,-2.401434257626533508e-02,-2.777088806033134460e-02
3.068000000000000000e+03,5.199999809265136719e+00,1.500000000000000000e+00,8.576036769625261513e-09,6.685389575267208784e-09,3.498878479003906250e+00,-2.360956370830535889e-02,-2.717377804219722748e-02
3.069000000000000000e+03,5.300000190734863281e+00,1.500000000000000000e+00,8.742960133645283349e-09,6.933576379708483728e-09,3.498415231704711914e+00,-2.320884354412555695e-02,-2.660238184034824371e-02
3.070000000000000000e+03,5.400000095367431641e+00,1.500000000000000000e+00,8.909856852312714182e-09,7.186529149549869544e-09,3.497992038726806641e+00,-2.281481213867664337e-02,-2.605729736387729645e-02
3.071000000000000000e+03,5.500000000000000000e+00,1.500000000000000000e+00,9.076729590162813111e-09,7.444250105237415482e-09,3.497606515884399414e+00,-2.242963202297687531e-02,-2.553929015994071960e-02
3.072000000000000000e+03,5.599999904632568359e+00,1.500000000000000000e+00,9.243581011730839236e-09,7.706740134949541243e-09,3.497255325317382812e+00,-2.205506525933742523e-02,-2.504846267402172089e-02
3.073000000000000000e+03,5.699999809265136719e+00,1.500000000000000000e+00,9.410411117016792559e-09,7.974001015043086227e-09,3.496936321258544922e+00,-2.169252000749111176e-02,-2.458474040031433105e-02
3.074000000000000000e+03,5.800000190734863281e+00,1.500000000000000000e+00,9.577224346912771580e-09,8.246034965964099683e-09,3.496646642684936523e+00,-2.134308405220508575e-02,-2.414791658520698547e-02
3.075000000000000000e+03,5.900000095367431641e+00,1.500000000000000000e+00,9.744018036883517198e-09,8.522839323177322512e-09,3.496384620666503906e+00,-2.100758254528045654e-02,-2.373724803328514099e-02
3.076000000000000000e+03,6.000000000000000000e+00,1.500000000000000000e+00,9.910796627821127913e-09,8.804415863039594115e-09,3.496147632598876953e+00,-2.068659476935863495e-02,-2.335237525403499603e-02
3.077000000000000000e+03,6.099999904632568359e+00,1.500000000000000000e+00,1.007756100790402343e-08,9.090764585550914489e-09,3.495933771133422852e+00,-2.038050256669521332e-02,-2.299246750771999359e-02
3.078000000000000000e+03,6.199999809265136719e+00,1.500000000000000000e+00,1.024431206531062344e-08,9.381886378889703337e-09,3.495741128921508789e+00,-2.008950151503086090e-02,-2.265667915344238281e-02
3.079000000000000000e+03,6.300000190734863281e+00,1.500000000000000000e+00,1.041105068821934765e-08,9.677781243055960658e-09,3.495568037033081055e+00,-1.981364004313945770e-02,-2.234418131411075592e-02
3.080000000000000000e+03,6.400000095367431641e+00,1.500000000000000000e+00,1.057777865298703546e-08,9.978447401692847052e-09,3.495413064956665039e+00,-1.955284364521503448e-02,-2.205373533070087433e-02
3.081000000000000000e+03,6.500000000000000000e+00,1.500000000000000000e+00,1.074449595961368686e-08,1.028388574297878222e-08,3.495274305343627930e+00,-1.930691860616207123e-02,-2.178460545837879181e-02
3.082000000000000000e+03,6.599999904632568359e+00,1.500000000000000000e+00,1.091120349627772157e-08,1.059409537873534646e-08,3.495150327682495117e+00,-1.907558739185333252e-02,-2.153567411005496979e-02
3.083000000000000000e+03,6.699999809265136719e+00,1.500000000000000000e+00,1.107790392751439867e-08,1.090907630896253977e-08,3.495040178298950195e+00,-1.885849423706531525e-02,-2.130589820444583893e-02
3.084000000000000000e+03,6.800000190734863281e+00,1.500000000000000000e+00,1.124459636514529848e-08,1.122882942183878185e-08,3.494942426681518555e+00,-1.865522563457489014e-02,-2.109432592988014221e-02
3.085000000000000000e+03,6.900000095367431641e+00,1.500000000000000000e+00,1.141128169734884068e-08,1.155335116465039391e-08,3.494855880737304688e+00,-1.846531778573989868e-02,-2.089965902268886566e-02
3.086000000000000000e+03,7.000000000000000000e+00,1.500000000000000000e+00,1.157796081230344498e-08,1.188264331375421534e-08,3.494779586791992188e+00,-1.828826963901519775e-02,-2.072114683687686920e-02
3.087000000000000000e+03,7.099999904632568359e+00,1.500000000000000000e+00,1.174463459818753108e-08,1.221670498097182644e-08,3.494712591171264648e+00,-1.812355592846870422e-02,-2.055771462619304657e-02
3.088000000000000000e+03,7.199999809265136719e+00,1.500000000000000000e+00,1.191130305500109898e-08,1.255553438994638782e-08,3.494653940200805664e+00,-1.797062903642654419e-02,-2.040839381515979767e-02
3.089000000000000000e+03,7.300000190734863281e+00,1.500000000000000000e+00,1.207796795910098808e-08,1.289913509339157827e-08,3.494602918624877930e+00,-1.782892830669879913e-02,-2.027233690023422241e-02
3.090000000000000000e+03,7.400000095367431641e+00,1.500000000000000000e+00,1.224462842230877868e-08,1.324750087405845989e-08,3.494558811187744141e+00,-1.769789494574069977e-02,-2.014837414026260376e-02
3.091000000000000000e+03,7.500000000000000000e+00,1.500000000000000000e+00,1.241128533280289048e-08,1.360063528466071148e-08,3.494520664215087891e+00,-1.757695898413658142e-02,-2.003591321408748627e-02
3.092000000000000000e+03,7.599999904632568359e+00,1.500000000000000000e+00,1.257793869058332348e-08,1.395853566066307394e-08,3.494488000869750977e+00,-1.746556162834167480e-02,-1.993403956294059753e-02
3.093000000000000000e+03,7.699999809265136719e+00,1.500000000000000000e+00,1.274458938382849738e-08,1.432120200206554728e-08,3.494460105895996094e+00,-1.736315339803695679e-02,-1.984196715056896210e-02
3.094000000000000000e+03,7.800000190734863281e+00,1.500000000000000000e+00,1.291123830071683187e-08,1.468863697340339058e-08,3.494436740875244141e+00,-1.726919040083885193e-02,-1.975903473794460297e-02
3.095000000000000000e+03,7.900000095367431641e+00,1.500000000000000000e+00,1.307788455306990727e-08,1.506083435742766596e-08,3.494417190551757812e+00,-1.718314737081527710e-02,-1.968427002429962158e-02
3.096000000000000000e+03,8.000000000000000000e+00,1.500000000000000000e+00,1.324452902906614327e-08,1.543779859503047192e-08,3.494400978088378906e+00,-1.710451394319534302e-02,-1.961727067828178406e-02
3.097000000000000000e+03,8.100000381469726562e+00,1.500000000000000000e+00,1.341117261688395956e-08,1.581952702167654934e-08,3.494388103485107422e+00,-1.703279651701450348e-02,-1.955741457641124725e-02
3.098000000000000000e+03,8.199999809265136719e+00,1.500000000000000000e+00,1.357781265198809706e-08,1.620601786100905883e-08,3.494377613067626953e+00,-1.696752198040485382e-02,-1.950374431908130646e-02
3.099000000000000000e+03,8.300000190734863281e+00,1.500000000000000000e+00,1.374445357527065426e-08,1.659727466574167920e-08,3.494369506835937500e+00,-1.690823584794998169e-02,-1.945634558796882629e-02
3.100000000000000000e+03,8.399999618530273438e+00,1.500000000000000000e+00,1.391109183401795235e-08,1.699329210680389224e-08,3.494363546371459961e+00,-1.685450412333011627e-02,-1.941397227346897125e-02
3.101000000000000000e+03,8.500000000000000000e+00,1.500000000000000000e+00,1.407773009276525045e-08,1.739407551326621615e-08,3.494359254837036133e+00,-1.680591702461242676e-02,-1.937687210738658905e-02
3.102000000000000000e+03,8.600000381469726562e+00,1.500000000000000000e+00,1.424436835151254854e-08,1.779962310877181153e-08,3.494356632232666016e+00,-1.676207967102527618e-02,-1.934404857456684113e-02
3.103000000000000000e+03,8.699999809265136719e+00,1.500000000000000000e+00,1.441100394572458754e-08,1.820992778789332078e-08,3.494355440139770508e+00,-1.672262512147426605e-02,-1.931508816778659821e-02
3.104000000000000000e+03,8.800000190734863281e+00,1.500000000000000000e+00,1.457764131629346593e-08,1.862499843241494091e-08,3.494355201721191406e+00,-1.668720319867134094e-02,-1.929015107452869415e-02
3.105000000000000000e+03,8.899999618530273438e+00,1.500000000000000000e+00,1.474427602232708523e-08,1.904482793690931430e-08,3.494355916976928711e+00,-1.665548421442508698e-02,-1.926815137267112732e-02
3.106000000000000000e+03,9.000000000000000000e+00,1.500000000000000000e+00,1.491091161653912422e-08,1.946942340680379857e-08,3.494357347488403320e+00,-1.662715896964073181e-02,-1.924948766827583313e-02
3.107000000000000000e+03,9.100000381469726562e+00,1.500000000000000000e+00,1.507754809892958292e-08,1.989877951302787551e-08,3.494359493255615234e+00,-1.660193875432014465e-02,-1.923331245779991150e-02
3.108000000000000000e+03,9.199999809265136719e+00,1.500000000000000000e+00,1.524418280496320222e-08,2.033289447922470572e-08,3.494362115859985352e+00,-1.657955534756183624e-02,-1.921934820711612701e-02
3.109000000000000000e+03,9.300000190734863281e+00,1.500000000000000000e+00,1.541081751099682151e-08,2.077177185810796800e-08,3.494365453720092773e+00,-1.655975542962551117e-02,-1.920788362622261047e-02
3.110000000000000000e+03,9.399999618530273438e+00,1.500000000000000000e+00,1.557745221703044081e-08,2.121540809696398355e-08,3.494368791580200195e+00,-1.654230244457721710e-02,-1.919795759022235870e-02
3.111000000000000000e+03,9.500000000000000000e+00,1.500000000000000000e+00,1.574408692306406010e-08,2.166380852486327058e-08,3.494372606277465820e+00,-1.652698032557964325e-02,-1.919008605182170868e-02
3.112000000000000000e+03,9.600000381469726562e+00,1.500000000000000000e+00,1.591072162909767940e-08,2.211696781273531087e-08,3.494376659393310547e+00,-1.651358790695667267e-02,-1.918352767825126648e-02
3.113000000000000000e+03,9.699999809265136719e+00,1.500000000000000000e+00,1.607735633513129869e-08,2.257488596058010444e-08,3.494380712509155273e+00,-1.650193706154823303e-02,-1.917810551822185516e-02
3.114000000000000000e+03,9.800000190734863281e+00,1.500000000000000000e+00,1.624399104116491799e-08,2.303756652111133008e-08,3.494384765625000000e+00,-1.649185456335544586e-02,-1.917420513927936554e-02
3.115000000000000000e+03,9.899999618530273438e+00,1.500000000000000000e+00,1.641062574719853728e-08,2.350500416525846958e-08,3.494389057159423828e+00,-1.648318395018577576e-02,-1.917095482349395752e-02
3.116000000000000000e+03,1.000000000000000000e+01,1.500000000000000000e+00,1.657726222958899598e-08,2.397720422209204116e-08,3.494393110275268555e+00,-1.647577807307243347e-02,-1.916894875466823578e-02
3.117000000000000000e+03,1.010000038146972656e+01,1.500000000000000000e+00,1.674389693562261527e-08,2.445416669161204481e-08,3.494397163391113281e+00,-1.646950282156467438e-02,-1.916752755641937256e-02
3.118000000000000000e+03,1.019999980926513672e+01,1.500000000000000000e+00,1.691053164165623457e-08,2.493588269203428354e-08,3.494401216506958008e+00,-1.646423526108264923e-02,-1.916656643152236938e-02
3.119000000000000000e+03,1.030000019073486328e+01,1.500000000000000000e+00,1.707716812404669326e-08,2.542236288149979373e-08,3.494405269622802734e+00,-1.645986549556255341e-02,-1.916655153036117554e-02
3.120000000000000000e+03,1.039999961853027344e+01,1.500000000000000000e+00,1.724380283008031256e-08,2.591359837822437839e-08,3.494409084320068359e+00,-1.645628735423088074e-02,-1.916662976145744324e-02
3.121000000000000000e+03,1.050000000000000000e+01,1.500000000000000000e+00,1.741043753611393186e-08,2.640959984034907393e-08,3.494412660598754883e+00,-1.645341143012046814e-02,-1.916749030351638794e-02
3.122000000000000000e+03,1.060000038146972656e+01,1.500000000000000000e+00,1.757707401850439055e-08,2.691035838608968334e-08,3.494416236877441406e+00,-1.645115017890930176e-02,-1.916849240660667419e-02
3.123000000000000000e+03,1.069999980926513672e+01,1.500000000000000000e+00,1.774371050089484925e-08,2.741587223908936721e-08,3.494419813156127930e+00,-1.644942909479141235e-02,-1.916957274079322815e-02
3.124000000000000000e+03,1.080000019073486328e+01,1.500000000000000000e+00,1.791034698328530794e-08,2.792615205748916196e-08,3.494422912597656250e+00,-1.644817925989627838e-02,-1.917125843465328217e-02
3.125000000000000000e+03,1.089999961853027344e+01,1.500000000000000000e+00,1.807698168931892724e-08,2.844118363043435238e-08,3.494426012039184570e+00,-1.644733734428882599e-02,-1.917273364961147308e-02
3.126000000000000000e+03,1.100000000000000000e+01,1.500000000000000000e+00,1.824361817170938593e-08,2.896098116877965367e-08,3.494429111480712891e+00,-1.644684560596942902e-02,-1.917472295463085175e-02
3.127000000000000000e+03,1.110000038146972656e+01,1.500000000000000000e+00,1.841025643045668403e-08,2.948553756709770823e-08,3.494431734085083008e+00,-1.644665561616420746e-02,-1.917661726474761963e-02
3.128000000000000000e+03,1.119999980926513672e+01,1.500000000000000000e+00,1.857689113649030332e-08,3.001484927267483727e-08,3.494434356689453125e+00,-1.644672267138957977e-02,-1.917838677763938904e-02
3.129000000000000000e+03,1.130000019073486328e+01,1.500000000000000000e+00,1.874352939523760142e-08,3.054892161458155897e-08,3.494436979293823242e+00,-1.644700579345226288e-02,-1.918057724833488464e-02
3.130000000000000000e+03,1.139999961853027344e+01,1.500000000000000000e+00,1.891016410127122072e-08,3.108775104010419454e-08,3.494439363479614258e+00,-1.644746772944927216e-02,-1.918240077793598175e-02
3.131000000000000000e+03,1.150000000000000000e+01,1.500000000000000000e+00,1.907680236001851881e-08,3.163134465467010159e-08,3.494441509246826172e+00,-1.644807867705821991e-02,-1.918460614979267120e-02
3.132000000000000000e+03,1.160000038146972656e+01,1.500000000000000000e+00,1.924344061876581691e-08,3.217969890556560131e-08,3.494443416595458984e+00,-1.644881069660186768e-02,-1.918659731745719910e-02
3.133000000000000000e+03,1.169999980926513672e+01,1.500000000000000000e+00,1.941007532479943620e-08,3.273280313464965730e-08,3.494445323944091797e+00,-1.644963584840297699e-02,-1.918836496770381927e-02
3.134000000000000000e+03,1.180000019073486328e+01,1.500000000000000000e+00,1.957671358354673430e-08,3.329067510549066355e-08,3.494446992874145508e+00,-1.645053550601005554e-02,-1.919047161936759949e-02
3.135000000000000000e+03,1.189999961853027344e+01,1.500000000000000000e+00,1.974335006593719299e-08,3.385330060723390488e-08,3.494448661804199219e+00,-1.645149104297161102e-02,-1.919214054942131042e-02
3.136000000000000000e+03,1.200000000000000000e+01,1.500000000000000000e+00,1.990998832468449109e-08,3.442068674530673889e-08,3.494450330734252930e+00,-1.645248197019100189e-02,-1.919413357973098755e-02
3.137000000000000000e+03,1.210000038146972656e+01,1.500000000000000000e+00,2.007662658343178919e-08,3.499283707242284436e-08,3.494451761245727539e+00,-1.645349897444248199e-02,-1.919586583971977234e-02
3.138000000000000000e+03,1.219999980926513672e+01,1.500000000000000000e+00,2.024326306582224788e-08,3.556973737772750610e-08,3.494452953338623047e+00,-1.645452529191970825e-02,-1.919733546674251556e-02
3.139000000000000000e+03,1.230000019073486328e+01,1.500000000000000000e+00,2.040990132456954598e-08,3.615140187207543931e-08,3.494454145431518555e+00,-1.645555347204208374e-02,-1.919911615550518036e-02
3.140000000000000000e+03,1.239999961853027344e+01,1.500000000000000000e+00,2.057653780696000467e-08,3.673782345003928640e-08,3.494455099105834961e+00,-1.645657420158386230e-02,-1.920043677091598511e-02
3.141000000000000000e+03,1.250000000000000000e+01,1.500000000000000000e+00,2.074317606570730277e-08,3.732900566433272616e-08,3.494456291198730469e+00,-1.645758002996444702e-02,-1.920206472277641296e-02
3.142000000000000000e+03,1.260000038146972656e+01,1.500000000000000000e+00,2.090981610081144026e-08,3.792495206766943738e-08,3.494457006454467773e+00,-1.645856350660324097e-02,-1.920342445373535156e-02
3.143000000000000000e+03,1.269999980926513672e+01,1.500000000000000000e+00,2.107645258320189896e-08,3.852564844919470488e-08,3.494457960128784180e+00,-1.645952090620994568e-02,-1.920451410114765167e-02
3.144000000000000000e+03,1.280000019073486328e+01,1.500000000000000000e+00,2.124309084194919706e-08,3.913110901976324385e-08,3.494458675384521484e+00,-1.646044850349426270e-02,-1.920591294765472412e-02
3.145000000000000000e+03,1.289999961853027344e+01,1.500000000000000000e+00,2.140972732433965575e-08,3.974132312123401789e-08,3.494459390640258789e+00,-1.646134443581104279e-02,-1.920685358345508575e-02
3.146000000000000000e+03,1.300000000000000000e+01,1.500000000000000000e+00,2.157636558308695385e-08,4.035630141174806340e-08,3.494460105895996094e+00,-1.646220311522483826e-02,-1.920810714364051819e-02
3.147000000000000000e+03,1.310000038146972656e+01,1.500000000000000000e+00,2.174300561819109134e-08,4.097604033859170158e-08,3.494460582733154297e+00,-1.646302454173564911e-02,-1.920909993350505829e-02
3.148000000000000000e+03,1.319999980926513672e+01,1.500000000000000000e+00,2.190964210058155004e-08,4.160053279633757484e-08,3.494461059570312500e+00,-1.646380871534347534e-02,-1.920983009040355682e-02
3.149000000000000000e+03,1.330000019073486328e+01,1.500000000000000000e+00,2.207628035932884814e-08,4.222978944312671956e-08,3.494461536407470703e+00,-1.646455563604831696e-02,-1.921088248491287231e-02
3.150000000000000000e+03,1.339999961853027344e+01,1.500000000000000000e+00,2.224291861807614623e-08,4.286379962081809936e-08,3.494462013244628906e+00,-1.646526530385017395e-02,-1.921148598194122314e-02
3.151000000000000000e+03,1.350000000000000000e+01,1.500000000000000000e+00,2.240955687682344433e-08,4.350257398755275062e-08,3.494462251663208008e+00,-1.646593585610389709e-02,-1.921241730451583862e-02
3.152000000000000000e+03,1.360000038146972656e+01,1.500000000000000000e+00,2.257619513557074242e-08,4.414610899061699456e-08,3.494462490081787109e+00,-1.646657101809978485e-02,-1.921309716999530792e-02
3.153000000000000000e+03,1.369999980926513672e+01,1.500000000000000000e+00,2.274283339431804052e-08,4.479439397186979477e-08,3.494462966918945312e+00,-1.646717265248298645e-02,-1.921353302896022797e-02
3.154000000000000000e+03,1.380000019073486328e+01,1.500000000000000000e+00,2.290947165306533861e-08,4.544744669487954525e-08,3.494463205337524414e+00,-1.646774075925350189e-02,-1.921430230140686035e-02
3.155000000000000000e+03,1.389999961853027344e+01,1.500000000000000000e+00,2.307610991181263671e-08,4.610525294879153080e-08,3.494463205337524414e+00,-1.646827720105648041e-02,-1.921463944017887115e-02
3.156000000000000000e+03,1.400000000000000000e+01,1.500000000000000000e+00,2.324274817055993481e-08,4.676782339174678782e-08,3.494463443756103516e+00,-1.646878756582736969e-02,-1.921531371772289276e-02
3.157000000000000000e+03,1.410000038146972656e+01,1.500000000000000000e+00,2.340938820566407230e-08,4.743515091831795871e-08,3.494463682174682617e+00,-1.646927185356616974e-02,-1.921575516462326050e-02
3.158000000000000000e+03,1.419999980926513672e+01,1.500000000000000000e+00,2.357602468805453100e-08,4.810723197579136468e-08,3.494463920593261719e+00,-1.646973565220832825e-02,-1.921596378087997437e-02
3.159000000000000000e+03,1.430000019073486328e+01,1.500000000000000000e+00,2.374266294680182909e-08,4.878408077502172091e-08,3.494463920593261719e+00,-1.647018082439899445e-02,-1.921651698648929596e-02
3.160000000000000000e+03,1.439999961853027344e+01,1.500000000000000000e+00,2.390930120554912719e-08,4.946567955244063342e-08,3.494464159011840820e+00,-1.647061295807361603e-02,-1.921665295958518982e-02
3.161000000000000000e+03,1.450000000000000000e+01,1.500000000000000000e+00,2.407593946429642529e-08,5.015204607161649619e-08,3.494464159011840820e+00,-1.647103764116764069e-02,-1.921713724732398987e-02
3.162000000000000000e+03,1.460000038146972656e+01,1.500000000000000000e+00,2.424257949940056278e-08,5.084316967440827284e-08,3.494464159011840820e+00,-1.647145859897136688e-02,-1.921739988029003143e-02
3.163000000000000000e+03,1.469999980926513672e+01,1.500000000000000000e+00,2.440921598179102148e-08,5.153904680810228456e-08,3.494464397430419922e+00,-1.647188328206539154e-02,-1.921744085848331451e-02
3.164000000000000000e+03,1.480000019073486328e+01,1.500000000000000000e+00,2.457585601689515897e-08,5.223969168355324655e-08,3.494464397430419922e+00,-1.647231541574001312e-02,-1.921783760190010071e-02
3.165000000000000000e+03,1.489999961853027344e+01,1.500000000000000000e+00,2.474249249928561767e-08,5.294508653719276481e-08,3.494464397430419922e+00,-1.647276803851127625e-02,-1.921782270073890686e-02
3.166000000000000000e+03,1.500000000000000000e+01,1.500000000000000000e+00,2.490913253438975516e-08,5.365524557987555454e-08,3.494464635848999023e+00,-1.647324487566947937e-02,-1.921816915273666382e-02
3.167000000000000000e+03,1.510000038146972656e+01,1.500000000000000000e+00,2.507577079313705326e-08,5.437016881160161574e-08,3.494464635848999023e+00,-1.647375896573066711e-02,-1.921829767525196075e-02
3.168000000000000000e+03,1.519999980926513672e+01,1.500000000000000000e+00,2.524240905188435136e-08,5.508983846880255442e-08,3.494464874267578125e+00,-1.647432148456573486e-02,-1.921821385622024536e-02
3.169000000000000000e+03,1.530000019073486328e+01,1.500000000000000000e+00,2.540904731063164945e-08,5.581427942047412216e-08,3.494465112686157227e+00,-1.647494360804557800e-02,-1.921849139034748077e-02
3.170000000000000000e+03,1.539999961853027344e+01,1.500000000000000000e+00,2.557568556937894755e-08,5.654346679762056738e-08,3.494465351104736328e+00,-1.647564023733139038e-02,-1.921836473047733307e-02
3.171000000000000000e+03,1.550000000000000000e+01,1.500000000000000000e+00,2.574232382812624564e-08,5.727742546923764166e-08,3.494465589523315430e+00,-1.647642627358436584e-02,-1.921860314905643463e-02
3.172000000000000000e+03,1.560000038146972656e+01,1.500000000000000000e+00,2.590896386323038314e-08,5.801614122447062982e-08,3.494466066360473633e+00,-1.647732220590114594e-02,-1.921862922608852386e-02
3.173000000000000000e+03,1.569999980926513672e+01,1.500000000000000000e+00,2.607560034562084184e-08,5.875960695789217425e-08,3.494466543197631836e+00,-1.647834666073322296e-02,-1.921844668686389923e-02
3.174000000000000000e+03,1.580000019073486328e+01,1.500000000000000000e+00,2.624224038072497933e-08,5.950784043307066895e-08,3.494467020034790039e+00,-1.647952571511268616e-02,-1.921863108873367310e-02
3.175000000000000000e+03,1.589999961853027344e+01,1.500000000000000000e+00,2.640887863947227743e-08,6.026082388643771992e-08,3.494467735290527344e+00,-1.648088172078132629e-02,-1.921841502189636230e-02
3.176000000000000000e+03,1.600000000000000000e+01,1.500000000000000000e+00,2.657551689821957552e-08,6.101857508156172116e-08,3.494468688964843750e+00,-1.648244448006153107e-02,-1.921856775879859924e-02
3.177000000000000000e+03,1.610000038146972656e+01,1.500000000000000000e+00,2.674215693332371302e-08,6.178108691301531508e-08,3.494469642639160156e+00,-1.648424752056598663e-02,-1.921851560473442078e-02
3.178000000000000000e+03,1.620000076293945312e+01,1.500000000000000000e+00,2.690879696842785052e-08,6.254835938079850166e-08,3.494470834732055664e+00,-1.648632623255252838e-02,-1.921845227479934692e-02
3.179000000000000000e+03,1.629999923706054688e+01,1.500000000000000000e+00,2.707543345081830921e-08,6.332037116862920811e-08,3.494472503662109375e+00,-1.648871973156929016e-02,-1.921799778938293457e-02
3.180000000000000000e+03,1.639999961853027344e+01,1.500000000000000000e+00,2.724207170956560731e-08,6.409715780364422244e-08,3.494474411010742188e+00,-1.649147085845470428e-02,-1.921830512583255768e-02
3.181000000000000000e+03,1.650000000000000000e+01,1.500000000000000000e+00,2.740871174466974480e-08,6.487870507498882944e-08,3.494476556777954102e+00,-1.649462617933750153e-02,-1.921823062002658844e-02
3.182000000000000000e+03,1.660000038146972656e+01,1.500000000000000000e+00,2.757535177977388230e-08,6.566501298266302911e-08,3.494479179382324219e+00,-1.649823784828186035e-02,-1.921816170215606689e-02
3.183000000000000000e+03,1.670000076293945312e+01,1.500000000000000000e+00,2.774199359123485920e-08,6.645608152666682145e-08,3.494482517242431641e+00,-1.650236174464225769e-02,-1.921810954809188843e-02
3.184000000000000000e+03,1.679999923706054688e+01,1.500000000000000000e+00,2.790863007362531789e-08,6.725188939071813365e-08,3.494486093521118164e+00,-1.650705188512802124e-02,-1.921769976615905762e-02
3.185000000000000000e+03,1.689999961853027344e+01,1.500000000000000000e+00,2.807527188508629479e-08,6.805247210195375374e-08,3.494490623474121094e+00,-1.651237159967422485e-02,-1.921810582280158997e-02
3.186000000000000000e+03,1.700000000000000000e+01,1.500000000000000000e+00,2.824191192019043228e-08,6.885781544951896649e-08,3.494495868682861328e+00,-1.651838049292564392e-02,-1.921818964183330536e-02
3.187000000000000000e+03,1.710000038146972656e+01,1.500000000000000000e+00,2.840855373165140918e-08,6.966791232798641431e-08,3.494502067565917969e+00,-1.652514003217220306e-02,-1.921836845576763153e-02
3.188000000000000000e+03,1.720000076293945312e+01,1.500000000000000000e+00,2.857519554311238608e-08,7.048277694821081241e-08,3.494509220123291016e+00,-1.653270795941352844e-02,-1.921867206692695618e-02
3.189000000000000000e+03,1.729999923706054688e+01,1.500000000000000000e+00,2.874183557821652357e-08,7.130238088848273037e-08,3.494517564773559570e+00,-1.654114015400409698e-02,-1.921876333653926849e-02
3.190000000000000000e+03,1.739999961853027344e+01,1.500000000000000000e+00,2.890847916603433987e-08,7.212675257051159861e-08,3.494527101516723633e+00,-1.655047945678234100e-02,-1.921985298395156860e-02
3.191000000000000000e+03,1.750000000000000000e+01,1.500000000000000000e+00,2.907512275385215617e-08,7.295589199429741711e-08,3.494538307189941406e+00,-1.656075194478034973e-02,-1.922085694968700409e-02
3.192000000000000000e+03,1.760000038146972656e+01,1.500000000000000000e+00,2.924176634166997246e-08,7.378978494898547069e-08,3.494550943374633789e+00,-1.657196879386901855e-02,-1.922225207090377808e-02
3.193000000000000000e+03,1.770000076293945312e+01,1.500000000000000000e+00,2.940841170584462816e-08,7.462844564543047454e-08,3.494565725326538086e+00,-1.658410206437110901e-02,-1.922415010631084442e-02
3.194000000000000000e+03,1.779999923706054688e+01,1.500000000000000000e+00,2.957505529366244446e-08,7.547183855649564066e-08,3.494582414627075195e+00,-1.659708656370639801e-02,-1.922630332410335541e-02
3.195000000000000000e+03,1.789999961853027344e+01,1.500000000000000000e+00,2.974170243419393955e-08,7.632001342017247225e-08,3.494601249694824219e+00,-1.661079935729503632e-02,-1.923003233969211578e-02
3.196000000000000000e+03,1.800000000000000000e+01,1.500000000000000000e+00,2.990835312743911345e-08,7.717294181475153891e-08,3.494622468948364258e+00,-1.662503555417060852e-02,-1.923437975347042084e-02
3.197000000000000000e+03,1.810000038146972656e+01,1.500000000000000000e+00,3.007500026797060855e-08,7.803063084566019825e-08,3.494646310806274414e+00,-1.663949713110923767e-02,-1.923996582627296448e-02
3.198000000000000000e+03,1.820000076293945312e+01,1.500000000000000000e+00,3.024165451392946125e-08,7.889307340747109265e-08,3.494672775268554688e+00,-1.665375567972660065e-02,-1.924705877900123596e-02
3.199000000000000000e+03,1.829999923706054688e+01,1.500000000000000000e+00,3.040830165446095634e-08,7.976026239475686452e-08,3.494702100753784180e+00,-1.666722446680068970e-02,-1.925556734204292297e-02
3.200000000000000000e+03,1.839999961853027344e+01,1.500000000000000000e+00,3.057495945313348784e-08,8.063222622922694427e-08,3.494733810424804688e+00,-1.667911373078823090e-02,-1.926696114242076874e-02
3.201000000000000000e+03,1.850000000000000000e+01,1.500000000000000000e+00,3.074161369909234054e-08,8.150894359459925909e-08,3.494768142700195312e+00,-1.668840274214744568e-02,-1.928040198981761932e-02
3.202000000000000000e+03,1.860000038146972656e+01,1.500000000000000000e+00,3.090827149776487204e-08,8.239042159630116657e-08,3.494804859161376953e+00,-1.669378392398357391e-02,-1.929655298590660095e-02
3.203000000000000000e+03,1.870000076293945312e+01,1.500000000000000000e+00,3.107493284915108234e-08,8.327666023433266673e-08,3.494843244552612305e+00,-1.669364422559738159e-02,-1.931560039520263672e-02
3.204000000000000000e+03,1.879999923706054688e+01,1.500000000000000000e+00,3.124159064782361384e-08,8.416763819241168676e-08,3.494882822036743164e+00,-1.668604090809822083e-02,-1.933719217777252197e-02
3.205000000000000000e+03,1.889999961853027344e+01,1.500000000000000000e+00,3.140825555192350294e-08,8.506338389224765706e-08,3.494922399520874023e+00,-1.666872948408126831e-02,-1.936225034296512604e-02
3.206000000000000000e+03,1.900000000000000000e+01,1.500000000000000000e+00,3.157492045602339203e-08,8.596389733384057763e-08,3.494961500167846680e+00,-1.663923077285289764e-02,-1.938901096582412720e-02
3.207000000000000000e+03,1.910000038146972656e+01,1.500000000000000000e+00,3.174158536012328113e-08,8.686916430633573327e-08,3.494998216629028320e+00,-1.659499667584896088e-02,-1.941673830151557922e-02
3.208000000000000000e+03,1.920000076293945312e+01,1.500000000000000000e+00,3.190825381693684903e-08,8.777918480973312398e-08,3.495031356811523438e+00,-1.653366163372993469e-02,-1.944367215037345886e-02
3.209000000000000000e+03,1.929999923706054688e+01,1.500000000000000000e+00,3.207491872103673813e-08,8.869395173860539217e-08,3.495059728622436523e+00,-1.645341515541076660e-02,-1.946694962680339813e-02
3.210000000000000000e+03,1.939999961853027344e+01,1.500000000000000000e+00,3.224158362513662723e-08,8.961349351466196822e-08,3.495081901550292969e+00,-1.635346375405788422e-02,-1.948453299701213837e-02
3.211000000000000000e+03,1.950000000000000000e+01,1.500000000000000000e+00,3.240824852923651633e-08,9.053780303247549455e-08,3.495097160339355469e+00,-1.623451523482799530e-02,-1.949150301516056061e-02
3.212000000000000000e+03,1.960000038146972656e+01,1.500000000000000000e+00,3.257491343333640543e-08,9.146686608119125594e-08,3.495105266571044922e+00,-1.609919406473636627e-02,-1.948422938585281372e-02
3.213000000000000000e+03,1.970000076293945312e+01,1.500000000000000000e+00,3.274157833743629453e-08,9.240070397709132521e-08,3.495107412338256836e+00,-1.595222391188144684e-02,-1.945892162621021271e-02
3.214000000000000000e+03,1.979999923706054688e+01,1.500000000000000000e+00,3.290823258339514723e-08,9.333928119303891435e-08,3.495104789733886719e+00,-1.580025441944599152e-02,-1.941222697496414185e-02
3.215000000000000000e+03,1.989999961853027344e+01,1.500000000000000000e+00,3.307489038206767873e-08,9.428265457245288417e-08,3.495100021362304688e+00,-1.565125398337841034e-02,-1.934374496340751648e-02
3.216000000000000000e+03,2.000000000000000000e+01,1.500000000000000000e+00,3.324154462802653143e-08,9.523079569362380425e-08,3.495096206665039062e+00,-1.551353558897972107e-02,-1.925261691212654114e-02
3.217000000000000000e+03,0.000000000000000000e+00,1.600000023841857910e+00,1.599002283670302504e-37,4.755825379637452642e-38,3.212326049804687500e+00,9.636978507041931152e-01,5.685356631875038147e-02
3.218000000000000000e+03,1.000000014901161194e-01,1.600000023841857910e+00,1.392008036615877131e-10,7.039013035642360805e-12,3.185477018356323242e+00,8.742007613182067871e-01,2.229350991547107697e-02
3.219000000000000000e+03,2.000000029802322388e-01,1.600000023841857910e+00,2.808251686747809117e-10,2.140107188686179995e-11,3.214451074600219727e+00,8.011307716369628906e-01,4.546626657247543335e-02
3.220000000000000000e+03,3.000000119209289551e-01,1.600000023841857910e+00,4.248467688761081718e-10,4.264588335245456108e-11,3.243072509765625000e+00,7.287315726280212402e-01,6.370229274034500122e-02
3.221000000000000000e+03,4.000000059604644775e-01,1.600000023841857910e+00,5.712026962534366703e-10,7.033242044318654962e-11,3.270868539810180664e+00,6.579789519309997559e-01,7.709291577339172363e-02
3.222000000000000000e+03,5.000000000000000000e-01,1.600000023841857910e+00,7.197950568915700842e-10,1.040323244216878606e-10,3.297375679016113281e+00,5.897875428199768066e-01,8.589527010917663574e-02
3.223000000000000000e+03,6.000000238418579102e-01,1.600000023841857910e+00,8.704947873638957390e-10,1.433424490215884362e-10,3.322176933288574219e+00,5.249459147453308105e-01,9.051271528005599976e-02
3.224000000000000000e+03,6.999999880790710449e-01,1.600000023841857910e+00,1.023147455647688275e-09,1.878952826661617337e-10,3.344930171966552734e+00,4.640724360942840576e-01,9.146017581224441528e-02
3.225000000000000000e+03,8.000000119209289551e-01,1.600000023841857910e+00,1.177581365752189413e-09,2.373666263544293997e-10,3.365389108657836914e+00,4.075940549373626709e-01,8.932123333215713501e-02
3.226000000000000000e+03,8.999999761581420898e-01,1.600000023841857910e+00,1.333614108034453238e-09,2.914797847530792296e-10,3.383412361145019531e+00,3.557478487491607666e-01,8.470450341701507568e-02
3.227000000000000000e+03,1.000000000000000000e+00,1.600000023841857910e+00,1.491060719338577201e-09,3.500068568307312944e-10,3.398958921432495117e+00,3.085996210575103760e-01,7.820463925600051880e-02
3.228000000000000000e+03,1.100000023841857910e+00,1.600000023841857910e+00,1.649739567177732624e-09,4.127673480791571592e-10,3.412077426910400391e+00,2.660731971263885498e-01,7.037247717380523682e-02
3.229000000000000000e+03,1.200000047683715820e+00,1.600000023841857910e+00,1.809477456760077985e-09,4.796247288219035454e-10,3.422888755798339844e+00,2.279841154813766479e-01,6.169500201940536499e-02
3.230000000000000000e+03,1.299999952316284180e+00,1.600000023841857910e+00,1.970112739613227859e-09,5.504817157664376737e-10,3.431565284729003906e+00,1.940724998712539673e-01,5.258513614535331726e-02
3.231000000000000000e+03,1.399999976158142090e+00,1.600000023841857910e+00,2.131498533231024339e-09,6.252753315116876820e-10,3.438312768936157227e+00,1.640320718288421631e-01,4.337914660573005676e-02
3.232000000000000000e+03,1.500000000000000000e+00,1.600000023841857910e+00,2.293503165162746882e-09,7.039709370992852655e-10,3.443353176116943359e+00,1.375341415405273438e-01,3.434032201766967773e-02
3.233000000000000000e+03,1.600000023841857910e+00,1.600000023841857910e+00,2.456009617901599995e-09,7.865571527432280163e-10,3.446911573410034180e+00,1.142453998327255249e-01,2.566573023796081543e-02
3.234000000000000000e+03,1.700000047683715820e+00,1.600000023841857910e+00,2.618916861152342790e-09,8.730410838708735355e-10,3.449204444885253906e+00,9.384091943502426147e-02,1.749525032937526703e-02
3.235000000000000000e+03,1.799999952316284180e+00,1.600000023841857910e+00,2.782137409340634804e-09,9.634439912531433947e-10,3.450435161590576172e+00,7.601250708103179932e-02,9.921043179929256439e-03
3.236000000000000000e+03,1.899999976158142090e+00,1.600000023841857910e+00,2.945596655479221226e-09,1.057797960335449261e-09,3.450788497924804688e+00,6.047370284795761108e-02,2.996550174430012703e-03
3.237000000000000000e+03,2.000000000000000000e+00,1.600000023841857910e+00,3.109231982989513199e-09,1.156142181990560402e-09,3.450428485870361328e+00,4.696232080459594727e-02,-3.254930255934596062e-03
3.238000000000000000e+03,2.099999904632568359e+00,1.600000023841857910e+00,3.272990323210933639e-09,1.258520732072554438e-09,3.449499130249023438e+00,3.524103388190269470e-02,-8.833252824842929840e-03
3.239000000000000000e+03,2.200000047683715820e+00,1.600000023841857910e+00,3.436828377445522165e-09,1.364981350171490249e-09,3.448124408721923828e+00,2.509679086506366730e-02,-1.375538762658834457e-02
3.240000000000000000e+03,2.299999952316284180e+00,1.600000023841857910e+00,3.600709508333466147e-09,1.475572108944334104e-09,3.446409940719604492e+00,1.633966341614723206e-02,-1.805008947849273682e-02
3.241000000000000000e+03,2.400000095367431641e+00,1.600000023841857910e+00,3.764605072120730256e-09,1.590342191271076899e-09,3.444444656372070312e+00,8.800934068858623505e-03,-2.175456099212169647e-02
3.242000000000000000e+03,2.500000000000000000e+00,1.600000023841857910e+00,3.928490865945377664e-09,1.709339114697172590e-09,3.442301750183105469e+00,2.331392373889684677e-03,-2.491061016917228699e-02
3.243000000000000000e+03,2.599999904632568359e+00,1.600000023841857910e+00,4.092348238060594667e-09,1.832609730634260359e-09,3.440042734146118164e+00,-3.200758248567581177e-03,-2.756297960877418518e-02
3.244000000000000000e+03,2.700000047683715820e+00,1.600000023841857910e+00,4.256162089433246365e-09,1.960198670047930136e-09,3.437716960906982422e+00,-7.911700755357742310e-03,-2.975708805024623871e-02
3.245000000000000000e+03,2.799999952316284180e+00,1.600000023841857910e+00,4.419920873743876655e-09,2.092147566301605366e-09,3.435364723205566406e+00,-1.190374419093132019e-02,-3.153771907091140747e-02
3.246000000000000000e+03,2.900000095367431641e+00,1.600000023841857910e+00,4.583616153297498386e-09,2.228497164580289791e-09,3.433017969131469727e+00,-1.526701357215642929e-02,-3.294854238629341125e-02
3.247000000000000000e+03,3.000000000000000000e+00,1.600000023841857910e+00,4.747241266755963807e-09,2.369283436109981267e-09,3.430701971054077148e+00,-1.808082871139049530e-02,-3.403080254793167114e-02
3.248000000000000000e+03,3.099999904632568359e+00,1.600000023841857910e+00,4.910791329137964567e-09,2.514541463938257948e-09,3.428436517715454102e+00,-2.041506394743919373e-02,-3.482357412576675415e-02
3.249000000000000000e+03,3.200000047683715820e+00,1.600000023841857910e+00,5.074265008175871117e-09,2.664303666577438889e-09,3.426236152648925781e+00,-2.233126200735569000e-02,-3.536307811737060547e-02
3.250000000000000000e+03,3.299999952316284180e+00,1.600000023841857910e+00,5.237658751156004655e-09,2.818598243692349570e-09,3.424112319946289062e+00,-2.388365380465984344e-02,-3.568257018923759460e-02
3.251000000000000000e+03,3.400000095367431641e+00,1.600000023841857910e+00,5.400973890345994732e-09,2.977453172903210543e-09,3.422073125839233398e+00,-2.512005530297756195e-02,-3.581277281045913696e-02
3.252000000000000000e+03,3.500000000000000000e+00,1.600000023841857910e+00,5.564209093478211798e-09,3.140891990938143863e-09,3.420123577117919922e+00,-2.608262374997138977e-02,-3.578124567866325378e-02
3.253000000000000000e+03,3.599999904632568359e+00,1.600000023841857910e+00,5.727366580998705103e-09,3.308937124302246957e-09,3.418267011642456055e+00,-2.680855244398117065e-02,-3.561317920684814453e-02
3.254000000000000000e+03,3.700000047683715820e+00,1.600000023841857910e+00,5.890448129264314048e-09,3.481609445188382779e-09,3.416505336761474609e+00,-2.733065001666545868e-02,-3.533107042312622070e-02
3.255000000000000000e+03,3.799999952316284180e+00,1.600000023841857910e+00,6.053454626453458332e-09,3.658926273075735480e-09,3.414838552474975586e+00,-2.767785638570785522e-02,-3.495485708117485046e-02
3.256000000000000000e+03,3.900000095367431641e+00,1.600000023841857910e+00,6.216389625279816755e-09,3.840904483354279364e-09,3.413266181945800781e+00,-2.787569165229797363e-02,-3.450256213545799255e-02
3.257000000000000000e+03,4.000000000000000000e+00,1.600000023841857910e+00,6.379254902100228719e-09,4.027558286878729632e-09,3.411786556243896484e+00,-2.794665098190307617e-02,-3.398975729942321777e-02
3.258000000000000000e+03,4.099999904632568359e+00,1.600000023841857910e+00,6.542053121449953323e-09,4.218900784280776861e-09,3.410397529602050781e+00,-2.791055105626583099e-02,-3.343043103814125061e-02
3.259000000000000000e+03,4.199999809265136719e+00,1.600000023841857910e+00,6.704787836042669369e-09,4.414943965969087003e-09,3.409096002578735352e+00,-2.778482250869274139e-02,-3.283664956688880920e-02
3.260000000000000000e+03,4.300000190734863281e+00,1.600000023841857910e+00,6.867462598592055656e-09,4.615698934173906309e-09,3.407879352569580078e+00,-2.758478745818138123e-02,-3.221900761127471924e-02
3.261000000000000000e+03,4.400000095367431641e+00,1.600000023841857910e+00,7.030078741365741735e-09,4.821173238411802231e-09,3.406744003295898438e+00,-2.732389234006404877e-02,-3.158633410930633545e-02
3.262000000000000000e+03,4.500000000000000000e+00,1.600000023841857910e+00,7.192639817077406406e-09,5.031375316377761919e-09,3.405686616897583008e+00,-2.701390534639358521e-02,-3.094668313860893250e-02
3.263000000000000000e+03,4.599999904632568359e+00,1.600000023841857910e+00,7.355149378440728469e-09,5.246312273499142975e-09,3.404703378677368164e+00,-2.666510827839374542e-02,-3.030659630894660950e-02
3.264000000000000000e+03,4.699999809265136719e+00,1.600000023841857910e+00,7.517609645901757176e-09,5.465990771114093150e-09,3.403790712356567383e+00,-2.628646045923233032e-02,-2.967166155576705933e-02
3.265000000000000000e+03,4.800000190734863281e+00,1.600000023841857910e+00,7.680025504441800877e-09,5.690416582382340493e-09,3.402945041656494141e+00,-2.588573656976222992e-02,-2.904663234949111938e-02
3.266000000000000000e+03,4.900000095367431641e+00,1.600000023841857910e+00,7.842396954060859571e-09,5.919592815928353957e-09,3.402162790298461914e+00,-2.546967007219791412e-02,-2.843509055674076080e-02
3.267000000000000000e+03,5.000000000000000000e+00,1.600000023841857910e+00,8.004727547472612059e-09,6.153523912644232041e-09,3.401440143585205078e+00,-2.504405379295349121e-02,-2.784042246639728546e-02
3.268000000000000000e+03,5.099999904632568359e+00,1.600000023841857910e+00,8.167020837390737142e-09,6.392213425243653546e-09,3.400774002075195312e+00,-2.461384609341621399e-02,-2.726502716541290283e-02
3.269000000000000000e+03,5.199999809265136719e+00,1.600000023841857910e+00,8.329278600172074221e-09,6.635664018261877573e-09,3.400160551071166992e+00,-2.418327704071998596e-02,-2.671082876622676849e-02
3.270000000000000000e+03,5.300000190734863281e+00,1.600000023841857910e+00,8.491504388530302094e-09,6.883879688501792771e-09,3.399596452713012695e+00,-2.375590987503528595e-02,-2.617934718728065491e-02
3.271000000000000000e+03,5.400000095367431641e+00,1.600000023841857910e+00,8.653698202465420763e-09,7.136859547784979441e-09,3.399079084396362305e+00,-2.333473972976207733e-02,-2.567133679986000061e-02
3.272000000000000000e+03,5.500000000000000000e+00,1.600000023841857910e+00,8.815863594691109029e-09,7.394607148825116383e-09,3.398604869842529297e+00,-2.292224019765853882e-02,-2.518771402537822723e-02
3.273000000000000000e+03,5.599999904632568359e+00,1.600000023841857910e+00,8.978003229742625990e-09,7.657122935711413447e-09,3.398170948028564453e+00,-2.252043597400188446e-02,-2.472873218357563019e-02
3.274000000000000000e+03,5.699999809265136719e+00,1.600000023841857910e+00,9.140117995798391348e-09,7.924407796622290334e-09,3.397774934768676758e+00,-2.213094942271709442e-02,-2.429446019232273102e-02
3.275000000000000000e+03,5.800000190734863281e+00,1.600000023841857910e+00,9.302211445572083903e-09,8.196464840182215994e-09,3.397413730621337891e+00,-2.175505831837654114e-02,-2.388483285903930664e-02
3.276000000000000000e+03,5.900000095367431641e+00,1.600000023841857910e+00,9.464282690885283955e-09,8.473290513677511626e-09,3.397085189819335938e+00,-2.139373496174812317e-02,-2.349924668669700623e-02
3.277000000000000000e+03,6.000000000000000000e+00,1.600000023841857910e+00,9.626334396273250604e-09,8.754888369821856031e-09,3.396786451339721680e+00,-2.104768157005310059e-02,-2.313747256994247437e-02
3.278000000000000000e+03,6.099999904632568359e+00,1.600000023841857910e+00,9.788369226271242951e-09,9.041256632258409809e-09,3.396515846252441406e+00,-2.071736939251422882e-02,-2.279880270361900330e-02
3.279000000000000000e+03,6.199999809265136719e+00,1.600000023841857910e+00,9.950388069057680696e-09,9.332396189165592659e-09,3.396270751953125000e+00,-2.040307223796844482e-02,-2.248251624405384064e-02
3.280000000000000000e+03,6.300000190734863281e+00,1.600000023841857910e+00,1.011239270098940324e-08,9.628308816900243983e-09,3.396049499511718750e+00,-2.010489068925380707e-02,-2.218789793550968170e-02
3.281000000000000000e+03,6.400000095367431641e+00,1.600000023841857910e+00,1.027438223388799088e-08,9.928990962748684979e-09,3.395850181579589844e+00,-1.982278749346733093e-02,-2.191381901502609253e-02
3.282000000000000000e+03,6.500000000000000000e+00,1.600000023841857910e+00,1.043636022046712242e-08,1.023444440306775505e-08,3.395670652389526367e+00,-1.955659128725528717e-02,-2.165964804589748383e-02
3.283000000000000000e+03,6.599999904632568359e+00,1.600000023841857910e+00,1.059832666072679785e-08,1.054466824967903449e-08,3.395509719848632812e+00,-1.930603571236133575e-02,-2.142436802387237549e-02
3.284000000000000000e+03,6.699999809265136719e+00,1.600000023841857910e+00,1.076028333102385659e-08,1.085966250258252330e-08,3.395365715026855469e+00,-1.907076314091682434e-02,-2.120702899992465973e-02
3.285000000000000000e+03,6.800000190734863281e+00,1.600000023841857910e+00,1.092223111953671832e-08,1.117942804995664119e-08,3.395236968994140625e+00,-1.885034888982772827e-02,-2.100676670670509338e-02
3.286000000000000000e+03,6.900000095367431641e+00,1.600000023841857910e+00,1.108417002626538306e-08,1.150396133908770935e-08,3.395122528076171875e+00,-1.864431798458099365e-02,-2.082236856222152710e-02
3.287000000000000000e+03,7.000000000000000000e+00,1.600000023841857910e+00,1.124610093938827049e-08,1.183326414633256718e-08,3.395020723342895508e+00,-1.845214515924453735e-02,-2.065316401422023773e-02
3.288000000000000000e+03,7.099999904632568359e+00,1.600000023841857910e+00,1.140802563526222002e-08,1.216733558351279498e-08,3.394930839538574219e+00,-1.827327534556388855e-02,-2.049814723432064056e-02
3.289000000000000000e+03,7.199999809265136719e+00,1.600000023841857910e+00,1.156994322570881195e-08,1.250617476244997306e-08,3.394851446151733398e+00,-1.810712926089763641e-02,-2.035642415285110474e-02
3.290000000000000000e+03,7.300000190734863281e+00,1.600000023841857910e+00,1.173185637526330538e-08,1.284978345950094081e-08,3.394781589508056641e+00,-1.795311458408832550e-02,-2.022721245884895325e-02
3.291000000000000000e+03,7.400000095367431641e+00,1.600000023841857910e+00,1.189376419574728061e-08,1.319815723377359973e-08,3.394720554351806641e+00,-1.781063340604305267e-02,-2.010940387845039368e-02
3.292000000000000000e+03,7.500000000000000000e+00,1.600000023841857910e+00,1.205566757533915734e-08,1.355129786162478922e-08,3.394667387008666992e+00,-1.767907850444316864e-02,-2.000246010720729828e-02
3.293000000000000000e+03,7.599999904632568359e+00,1.600000023841857910e+00,1.221756651403893557e-08,1.390920445487608959e-08,3.394621133804321289e+00,-1.755785383284091949e-02,-1.990552246570587158e-02
3.294000000000000000e+03,7.699999809265136719e+00,1.600000023841857910e+00,1.237946278820345469e-08,1.427187701352750082e-08,3.394581556320190430e+00,-1.744636520743370056e-02,-1.981785520911216736e-02
3.295000000000000000e+03,7.800000190734863281e+00,1.600000023841857910e+00,1.254135639783271472e-08,1.463931731393586233e-08,3.394547462463378906e+00,-1.734403334558010101e-02,-1.973884366452693939e-02
3.296000000000000000e+03,7.900000095367431641e+00,1.600000023841857910e+00,1.270324645474829595e-08,1.501152091520907561e-08,3.394518375396728516e+00,-1.725029014050960541e-02,-1.966755650937557220e-02
3.297000000000000000e+03,8.000000000000000000e+00,1.600000023841857910e+00,1.286513384712861807e-08,1.538848692916872096e-08,3.394494056701660156e+00,-1.716458797454833984e-02,-1.960363425314426422e-02
3.298000000000000000e+03,8.100000381469726562e+00,1.600000023841857910e+00,1.302702035133052050e-08,1.577022068488531659e-08,3.394473552703857422e+00,-1.708639226853847504e-02,-1.954649016261100769e-02
3.299000000000000000e+03,8.199999809265136719e+00,1.600000023841857910e+00,1.318890330281874412e-08,1.615671507693150488e-08,3.394456863403320312e+00,-1.701519638299942017e-02,-1.949520036578178406e-02
3.300000000000000000e+03,8.300000190734863281e+00,1.600000023841857910e+00,1.335078625430696775e-08,1.654797543437780405e-08,3.394443273544311523e+00,-1.695050485432147980e-02,-1.944988407194614410e-02
3.301000000000000000e+03,8.399999618530273438e+00,1.600000023841857910e+00,1.351266565308151257e-08,1.694399642815369589e-08,3.394432306289672852e+00,-1.689185388386249542e-02,-1.940932311117649078e-02
3.302000000000000000e+03,8.500000000000000000e+00,1.600000023841857910e+00,1.367454682821289680e-08,1.734478161097285920e-08,3.394423961639404297e+00,-1.683879457414150238e-02,-1.937379315495491028e-02
3.303000000000000000e+03,8.600000381469726562e+00,1.600000023841857910e+00,1.383642622698744162e-08,1.775033098283529398e-08,3.394417762756347656e+00,-1.679090410470962524e-02,-1.934232190251350403e-02
3.304000000000000000e+03,8.699999809265136719e+00,1.600000023841857910e+00,1.399830296122672735e-08,1.816063921467048203e-08,3.394413471221923828e+00,-1.674778200685977936e-02,-1.931451819837093353e-02
3.305000000000000000e+03,8.800000190734863281e+00,1.600000023841857910e+00,1.416018058364443277e-08,1.857571163554894156e-08,3.394410610198974609e+00,-1.670905016362667084e-02,-1.929056271910667419e-02
3.306000000000000000e+03,8.899999618530273438e+00,1.600000023841857910e+00,1.432205642970529880e-08,1.899554291640015435e-08,3.394409179687500000e+00,-1.667435094714164734e-02,-1.926938630640506744e-02
3.307000000000000000e+03,9.000000000000000000e+00,1.600000023841857910e+00,1.448393405212300422e-08,1.942014016265147802e-08,3.394408941268920898e+00,-1.664335094392299652e-02,-1.925141178071498871e-02
3.308000000000000000e+03,9.100000381469726562e+00,1.600000023841857910e+00,1.464580989818387025e-08,1.984949804523239436e-08,3.394409894943237305e+00,-1.661573350429534912e-02,-1.923580095171928406e-02
3.309000000000000000e+03,9.199999809265136719e+00,1.600000023841857910e+00,1.480768485606631657e-08,2.028361123507238517e-08,3.394411325454711914e+00,-1.659120991826057434e-02,-1.922229118645191193e-02
3.310000000000000000e+03,9.300000190734863281e+00,1.600000023841857910e+00,1.496956159030560229e-08,2.072249216666932625e-08,3.394413709640502930e+00,-1.656950265169143677e-02,-1.921118795871734619e-02
3.311000000000000000e+03,9.399999618530273438e+00,1.600000023841857910e+00,1.513143566000962892e-08,2.116612840552534180e-08,3.394416570663452148e+00,-1.655035652220249176e-02,-1.920153945684432983e-02
3.312000000000000000e+03,9.500000000000000000e+00,1.600000023841857910e+00,1.529331150607049494e-08,2.161452883342462883e-08,3.394419908523559570e+00,-1.653353683650493622e-02,-1.919387280941009521e-02
3.313000000000000000e+03,9.600000381469726562e+00,1.600000023841857910e+00,1.545518735213136097e-08,2.206768989765350852e-08,3.394423484802246094e+00,-1.651882380247116089e-02,-1.918745413422584534e-02
3.314000000000000000e+03,9.699999809265136719e+00,1.600000023841857910e+00,1.561706142183538759e-08,2.252560804549830209e-08,3.394427537918090820e+00,-1.650601252913475037e-02,-1.918211765587329865e-02
3.315000000000000000e+03,9.800000190734863281e+00,1.600000023841857910e+00,1.577893726789625362e-08,2.298828860602952773e-08,3.394431591033935547e+00,-1.649491675198078156e-02,-1.917825825512409210e-02
3.316000000000000000e+03,9.899999618530273438e+00,1.600000023841857910e+00,1.594081133760028024e-08,2.345572625017666724e-08,3.394435882568359375e+00,-1.648536324501037598e-02,-1.917500421404838562e-02
3.317000000000000000e+03,1.000000000000000000e+01,1.600000023841857910e+00,1.610268718366114626e-08,2.392792808336707822e-08,3.394440412521362305e+00,-1.647719368338584900e-02,-1.917296461760997772e-02
3.318000000000000000e+03,1.010000038146972656e+01,1.600000023841857910e+00,1.626456302972201229e-08,2.440489055288708187e-08,3.394444704055786133e+00,-1.647026091814041138e-02,-1.917148008942604065e-02
3.319000000000000000e+03,1.019999980926513672e+01,1.600000023841857910e+00,1.642643887578287831e-08,2.488660655330932059e-08,3.394448995590209961e+00,-1.646443083882331848e-02,-1.917043328285217285e-02
3.320000000000000000e+03,1.030000019073486328e+01,1.600000023841857910e+00,1.658831472184374434e-08,2.537308674277483078e-08,3.394453287124633789e+00,-1.645958423614501953e-02,-1.917031407356262207e-02
3.321000000000000000e+03,1.039999961853027344e+01,1.600000023841857910e+00,1.675019056790461036e-08,2.586432401585625485e-08,3.394457578659057617e+00,-1.645560562610626221e-02,-1.917027123272418976e-02
3.322000000000000000e+03,1.050000000000000000e+01,1.600000023841857910e+00,1.691206641396547639e-08,2.636032370162411098e-08,3.394461631774902344e+00,-1.645239815115928650e-02,-1.917099952697753906e-02
3.323000000000000000e+03,1.060000038146972656e+01,1.600000023841857910e+00,1.707394403638318181e-08,2.686108402372155979e-08,3.394465684890747070e+00,-1.644986495375633240e-02,-1.917186006903648376e-02
3.324000000000000000e+03,1.069999980926513672e+01,1.600000023841857910e+00,1.723581810608720843e-08,2.736659787672124367e-08,3.394469738006591797e+00,-1.644792407751083374e-02,-1.917279325425624847e-02
3.325000000000000000e+03,1.080000019073486328e+01,1.600000023841857910e+00,1.739769572850491386e-08,2.787687591876419901e-08,3.394473314285278320e+00,-1.644650101661682129e-02,-1.917432807385921478e-02
3.326000000000000000e+03,1.089999961853027344e+01,1.600000023841857910e+00,1.755957157456577988e-08,2.839190926806622883e-08,3.394476890563964844e+00,-1.644552685320377350e-02,-1.917564682662487030e-02
3.327000000000000000e+03,1.100000000000000000e+01,1.600000023841857910e+00,1.772144919698348531e-08,2.891170503005469072e-08,3.394480466842651367e+00,-1.644494011998176575e-02,-1.917748339474201202e-02
3.328000000000000000e+03,1.110000038146972656e+01,1.600000023841857910e+00,1.788332681940119073e-08,2.943626142837274529e-08,3.394483566284179688e+00,-1.644468493759632111e-02,-1.917922496795654297e-02
3.329000000000000000e+03,1.119999980926513672e+01,1.600000023841857910e+00,1.804520266546205676e-08,2.996557313394987432e-08,3.394486665725708008e+00,-1.644471287727355957e-02,-1.918084174394607544e-02
3.330000000000000000e+03,1.130000019073486328e+01,1.600000023841857910e+00,1.820708028787976218e-08,3.049964902857027482e-08,3.394489526748657227e+00,-1.644498109817504883e-02,-1.918288320302963257e-02
3.331000000000000000e+03,1.139999961853027344e+01,1.600000023841857910e+00,1.836895791029746761e-08,3.103847490137923160e-08,3.394492387771606445e+00,-1.644544675946235657e-02,-1.918456144630908966e-02
3.332000000000000000e+03,1.150000000000000000e+01,1.600000023841857910e+00,1.853083553271517303e-08,3.158206851594513864e-08,3.394495010375976562e+00,-1.644607819616794586e-02,-1.918662525713443756e-02
3.333000000000000000e+03,1.160000038146972656e+01,1.600000023841857910e+00,1.869271315513287846e-08,3.213042276684063836e-08,3.394497394561767578e+00,-1.644684188067913055e-02,-1.918848231434822083e-02
3.334000000000000000e+03,1.169999980926513672e+01,1.600000023841857910e+00,1.885459077755058388e-08,3.268352699592469435e-08,3.394499778747558594e+00,-1.644771359860897064e-02,-1.919011771678924561e-02
3.335000000000000000e+03,1.180000019073486328e+01,1.600000023841857910e+00,1.901647017632512870e-08,3.324139896676570061e-08,3.394501686096191406e+00,-1.644866727292537689e-02,-1.919209957122802734e-02
3.336000000000000000e+03,1.189999961853027344e+01,1.600000023841857910e+00,1.917834602238599473e-08,3.380402091579526314e-08,3.394503831863403320e+00,-1.644968427717685699e-02,-1.919364929199218750e-02
3.337000000000000000e+03,1.200000000000000000e+01,1.600000023841857910e+00,1.934022542116053955e-08,3.437141060658177594e-08,3.394505500793457031e+00,-1.645074225962162018e-02,-1.919552683830261230e-02
3.338000000000000000e+03,1.210000038146972656e+01,1.600000023841857910e+00,1.950210481993508438e-08,3.494356093369788141e-08,3.394507408142089844e+00,-1.645183004438877106e-02,-1.919715292751789093e-02
3.339000000000000000e+03,1.219999980926513672e+01,1.600000023841857910e+00,1.966398066599595040e-08,3.552046123900254315e-08,3.394508838653564453e+00,-1.645293086767196655e-02,-1.919852010905742645e-02
3.340000000000000000e+03,1.230000019073486328e+01,1.600000023841857910e+00,1.982586006477049523e-08,3.610212573335047637e-08,3.394510269165039062e+00,-1.645403541624546051e-02,-1.920020394027233124e-02
3.341000000000000000e+03,1.239999961853027344e+01,1.600000023841857910e+00,1.998773768718820065e-08,3.668854731131432345e-08,3.394511699676513672e+00,-1.645513437688350677e-02,-1.920143328607082367e-02
3.342000000000000000e+03,1.250000000000000000e+01,1.600000023841857910e+00,2.014961708596274548e-08,3.727972952560776321e-08,3.394512891769409180e+00,-1.645621657371520996e-02,-1.920297555625438690e-02
3.343000000000000000e+03,1.260000038146972656e+01,1.600000023841857910e+00,2.031149648473729030e-08,3.787567237623079563e-08,3.394514083862304688e+00,-1.645727641880512238e-02,-1.920425519347190857e-02
3.344000000000000000e+03,1.269999980926513672e+01,1.600000023841857910e+00,2.047337410715499573e-08,3.847636875775606313e-08,3.394515037536621094e+00,-1.645831018686294556e-02,-1.920527033507823944e-02
3.345000000000000000e+03,1.280000019073486328e+01,1.600000023841857910e+00,2.063525350592954055e-08,3.908183288103828090e-08,3.394515991210937500e+00,-1.645931228995323181e-02,-1.920660026371479034e-02
3.346000000000000000e+03,1.289999961853027344e+01,1.600000023841857910e+00,2.079713112834724598e-08,3.969204698250905494e-08,3.394516944885253906e+00,-1.646027900278568268e-02,-1.920747570693492889e-02
3.347000000000000000e+03,1.300000000000000000e+01,1.600000023841857910e+00,2.095901052712179080e-08,4.030702527302310045e-08,3.394517660140991211e+00,-1.646120846271514893e-02,-1.920866779983043671e-02
3.348000000000000000e+03,1.310000038146972656e+01,1.600000023841857910e+00,2.112088992589633563e-08,4.092676419986673864e-08,3.394518375396728516e+00,-1.646209880709648132e-02,-1.920960284769535065e-02
3.349000000000000000e+03,1.319999980926513672e+01,1.600000023841857910e+00,2.128276932467088045e-08,4.155125665761261189e-08,3.394519090652465820e+00,-1.646294817328453064e-02,-1.921028271317481995e-02
3.350000000000000000e+03,1.330000019073486328e+01,1.600000023841857910e+00,2.144464872344542528e-08,4.218051330440175661e-08,3.394519567489624023e+00,-1.646375656127929688e-02,-1.921128667891025543e-02
3.351000000000000000e+03,1.339999961853027344e+01,1.600000023841857910e+00,2.160652634586313070e-08,4.281452348209313641e-08,3.394520282745361328e+00,-1.646452397108078003e-02,-1.921184733510017395e-02
3.352000000000000000e+03,1.350000000000000000e+01,1.600000023841857910e+00,2.176840574463767553e-08,4.345329784882778767e-08,3.394520759582519531e+00,-1.646525226533412933e-02,-1.921273581683635712e-02
3.353000000000000000e+03,1.360000038146972656e+01,1.600000023841857910e+00,2.193028514341222035e-08,4.409683285189203161e-08,3.394520998001098633e+00,-1.646594144403934479e-02,-1.921338029205799103e-02
3.354000000000000000e+03,1.369999980926513672e+01,1.600000023841857910e+00,2.209216454218676517e-08,4.474511783314483182e-08,3.394521474838256836e+00,-1.646659336984157562e-02,-1.921378262341022491e-02
3.355000000000000000e+03,1.380000019073486328e+01,1.600000023841857910e+00,2.225404394096131000e-08,4.539817055615458230e-08,3.394521713256835938e+00,-1.646720990538597107e-02,-1.921452023088932037e-02
3.356000000000000000e+03,1.389999961853027344e+01,1.600000023841857910e+00,2.241592156337901542e-08,4.605597325735288905e-08,3.394521951675415039e+00,-1.646779291331768036e-02,-1.921482942998409271e-02
3.357000000000000000e+03,1.400000000000000000e+01,1.600000023841857910e+00,2.257780096215356025e-08,4.671854370030814607e-08,3.394522428512573242e+00,-1.646834611892700195e-02,-1.921548135578632355e-02
3.358000000000000000e+03,1.410000038146972656e+01,1.600000023841857910e+00,2.273968213728494447e-08,4.738587477959299576e-08,3.394522666931152344e+00,-1.646887138485908508e-02,-1.921590045094490051e-02
3.359000000000000000e+03,1.419999980926513672e+01,1.600000023841857910e+00,2.290155975970264990e-08,4.805795583706640173e-08,3.394522666931152344e+00,-1.646937243640422821e-02,-1.921609044075012207e-02
3.360000000000000000e+03,1.430000019073486328e+01,1.600000023841857910e+00,2.306343915847719472e-08,4.873480463629675796e-08,3.394522905349731445e+00,-1.646985299885272980e-02,-1.921662874519824982e-02
3.361000000000000000e+03,1.439999961853027344e+01,1.600000023841857910e+00,2.322531855725173955e-08,4.941640341371567047e-08,3.394523143768310547e+00,-1.647031866014003754e-02,-1.921675354242324829e-02
3.362000000000000000e+03,1.450000000000000000e+01,1.600000023841857910e+00,2.338719795602628437e-08,5.010276993289153324e-08,3.394523143768310547e+00,-1.647077500820159912e-02,-1.921723037958145142e-02
3.363000000000000000e+03,1.460000038146972656e+01,1.600000023841857910e+00,2.354907735480082920e-08,5.079389353568330989e-08,3.394523382186889648e+00,-1.647122390568256378e-02,-1.921748928725719452e-02
3.364000000000000000e+03,1.469999980926513672e+01,1.600000023841857910e+00,2.371095675357537402e-08,5.148977066937732161e-08,3.394523620605468750e+00,-1.647167652845382690e-02,-1.921753026545047760e-02
3.365000000000000000e+03,1.480000019073486328e+01,1.600000023841857910e+00,2.387283615234991885e-08,5.219041199211460480e-08,3.394523620605468750e+00,-1.647213660180568695e-02,-1.921793259680271149e-02
3.366000000000000000e+03,1.489999961853027344e+01,1.600000023841857910e+00,2.403471377476762427e-08,5.289580684575412306e-08,3.394523859024047852e+00,-1.647261157631874084e-02,-1.921793073415756226e-02
3.367000000000000000e+03,1.500000000000000000e+01,1.600000023841857910e+00,2.419659494989900850e-08,5.360596944115059159e-08,3.394523859024047852e+00,-1.647311262786388397e-02,-1.921829394996166229e-02
3.368000000000000000e+03,1.510000038146972656e+01,1.600000023841857910e+00,2.435847434867355332e-08,5.432088912016297400e-08,3.394524097442626953e+00,-1.647364906966686249e-02,-1.921844854950904846e-02
3.369000000000000000e+03,1.519999980926513672e+01,1.600000023841857910e+00,2.452035197109125875e-08,5.504056233007759147e-08,3.394524335861206055e+00,-1.647423207759857178e-02,-1.921840012073516846e-02
3.370000000000000000e+03,1.530000019073486328e+01,1.600000023841857910e+00,2.468223314622264297e-08,5.576499972903548041e-08,3.394524574279785156e+00,-1.647487282752990723e-02,-1.921872235834598541e-02
3.371000000000000000e+03,1.539999961853027344e+01,1.600000023841857910e+00,2.484411076864034840e-08,5.649419065889560443e-08,3.394524812698364258e+00,-1.647558808326721191e-02,-1.921865344047546387e-02
3.372000000000000000e+03,1.550000000000000000e+01,1.600000023841857910e+00,2.500599194377173262e-08,5.722814577779899992e-08,3.394525051116943359e+00,-1.647639274597167969e-02,-1.921896263957023621e-02
3.373000000000000000e+03,1.560000038146972656e+01,1.600000023841857910e+00,2.516787134254627745e-08,5.796686153303198807e-08,3.394525527954101562e+00,-1.647730357944965363e-02,-1.921907812356948853e-02
3.374000000000000000e+03,1.569999980926513672e+01,1.600000023841857910e+00,2.532974896496398287e-08,5.871033081916721130e-08,3.394526004791259766e+00,-1.647834479808807373e-02,-1.921900361776351929e-02
3.375000000000000000e+03,1.580000019073486328e+01,1.600000023841857910e+00,2.549163014009536710e-08,5.945856429434570600e-08,3.394526481628417969e+00,-1.647953689098358154e-02,-1.921931840479373932e-02
3.376000000000000000e+03,1.589999961853027344e+01,1.600000023841857910e+00,2.565350776251307252e-08,6.021154774771275697e-08,3.394527196884155273e+00,-1.648090407252311707e-02,-1.921925880014896393e-02
3.377000000000000000e+03,1.600000000000000000e+01,1.600000023841857910e+00,2.581538893764445675e-08,6.096929894283675821e-08,3.394528150558471680e+00,-1.648247800767421722e-02,-1.921959966421127319e-02
3.378000000000000000e+03,1.610000038146972656e+01,1.600000023841857910e+00,2.597727011277584097e-08,6.173181077429035213e-08,3.394529342651367188e+00,-1.648429036140441895e-02,-1.921977102756500244e-02
3.379000000000000000e+03,1.620000076293945312e+01,1.600000023841857910e+00,2.613914951155038580e-08,6.249908324207353871e-08,3.394530534744262695e+00,-1.648637279868125916e-02,-1.921997219324111938e-02
3.380000000000000000e+03,1.629999923706054688e+01,1.600000023841857910e+00,2.630102713396809122e-08,6.327109502990424517e-08,3.394532203674316406e+00,-1.648876629769802094e-02,-1.921982876956462860e-02
3.381000000000000000e+03,1.639999961853027344e+01,1.600000023841857910e+00,2.646290830909947545e-08,6.404788166491925949e-08,3.394534111022949219e+00,-1.649151183664798737e-02,-1.922050304710865021e-02
3.382000000000000000e+03,1.650000000000000000e+01,1.600000023841857910e+00,2.662478948423085967e-08,6.482942893626386649e-08,3.394536495208740234e+00,-1.649465411901473999e-02,-1.922085694968700409e-02
3.383000000000000000e+03,1.660000038146972656e+01,1.600000023841857910e+00,2.678667065936224390e-08,6.561573684393806616e-08,3.394539117813110352e+00,-1.649824529886245728e-02,-1.922128908336162567e-02
3.384000000000000000e+03,1.670000076293945312e+01,1.600000023841857910e+00,2.694855183449362812e-08,6.640679828251450090e-08,3.394542455673217773e+00,-1.650233194231987000e-02,-1.922181807458400726e-02
3.385000000000000000e+03,1.679999923706054688e+01,1.600000023841857910e+00,2.711042945691133355e-08,6.720260614656581311e-08,3.394546270370483398e+00,-1.650696992874145508e-02,-1.922208257019519806e-02
3.386000000000000000e+03,1.689999961853027344e+01,1.600000023841857910e+00,2.727231063204271777e-08,6.800318885780143319e-08,3.394550800323486328e+00,-1.651221700012683868e-02,-1.922326162457466125e-02
3.387000000000000000e+03,1.700000000000000000e+01,1.600000023841857910e+00,2.743419358353094140e-08,6.880853220536664594e-08,3.394556045532226562e+00,-1.651812344789505005e-02,-1.922423765063285828e-02
3.388000000000000000e+03,1.710000038146972656e+01,1.600000023841857910e+00,2.759607653501916502e-08,6.961863618926145136e-08,3.394562244415283203e+00,-1.652474701404571533e-02,-1.922543160617351532e-02
3.389000000000000000e+03,1.720000076293945312e+01,1.600000023841857910e+00,2.775795948650738865e-08,7.043349370405849186e-08,3.394569396972656250e+00,-1.653213426470756531e-02,-1.922689378261566162e-02
3.390000000000000000e+03,1.729999923706054688e+01,1.600000023841857910e+00,2.791983888528193347e-08,7.125309764433040982e-08,3.394577503204345703e+00,-1.654032617807388306e-02,-1.922829635441303253e-02
3.391000000000000000e+03,1.739999961853027344e+01,1.600000023841857910e+00,2.808172361312699650e-08,7.207747643178663566e-08,3.394587039947509766e+00,-1.654935441911220551e-02,-1.923086121678352356e-02
3.392000000000000000e+03,1.750000000000000000e+01,1.600000023841857910e+00,2.824360834097205952e-08,7.290660875014509656e-08,3.394598245620727539e+00,-1.655922643840312958e-02,-1.923351921141147614e-02
3.393000000000000000e+03,1.760000038146972656e+01,1.600000023841857910e+00,2.840549306881712255e-08,7.374050170483315014e-08,3.394610643386840820e+00,-1.656993106007575989e-02,-1.923675090074539185e-02
3.394000000000000000e+03,1.770000076293945312e+01,1.600000023841857910e+00,2.856737957301902497e-08,7.457915529585079639e-08,3.394624948501586914e+00,-1.658141799271106720e-02,-1.924067363142967224e-02
3.395000000000000000e+03,1.779999923706054688e+01,1.600000023841857910e+00,2.872926430086408800e-08,7.542255531234332011e-08,3.394641160964965820e+00,-1.659359224140644073e-02,-1.924503780901432037e-02
3.396000000000000000e+03,1.789999961853027344e+01,1.600000023841857910e+00,2.889115258142282983e-08,7.627072307059279410e-08,3.394659280776977539e+00,-1.660629734396934509e-02,-1.925115287303924561e-02
3.397000000000000000e+03,1.800000000000000000e+01,1.600000023841857910e+00,2.905304086198157165e-08,7.712365146517186076e-08,3.394679784774780273e+00,-1.661930046975612640e-02,-1.925804093480110168e-02
3.398000000000000000e+03,1.810000038146972656e+01,1.600000023841857910e+00,2.921493269525399228e-08,7.798134049608052010e-08,3.394702196121215820e+00,-1.663226634263992310e-02,-1.926628500223159790e-02
3.399000000000000000e+03,1.820000076293945312e+01,1.600000023841857910e+00,2.937682452852641291e-08,7.884378305789141450e-08,3.394727230072021484e+00,-1.664473861455917358e-02,-1.927609555423259735e-02
3.400000000000000000e+03,1.829999923706054688e+01,1.600000023841857910e+00,2.953871458544199413e-08,7.971097204517718637e-08,3.394754409790039062e+00,-1.665611006319522858e-02,-1.928730495274066925e-02
3.401000000000000000e+03,1.839999961853027344e+01,1.600000023841857910e+00,2.970060997142809356e-08,8.058293587964726612e-08,3.394783735275268555e+00,-1.666559651494026184e-02,-1.930127479135990143e-02
3.402000000000000000e+03,1.850000000000000000e+01,1.600000023841857910e+00,2.986250535741419299e-08,8.145965324501958094e-08,3.394814968109130859e+00,-1.667220704257488251e-02,-1.931702345609664917e-02
3.403000000000000000e+03,1.860000038146972656e+01,1.600000023841857910e+00,3.002440607247081061e-08,8.234113124672148842e-08,3.394847869873046875e+00,-1.667471788823604584e-02,-1.933503709733486176e-02
3.404000000000000000e+03,1.870000076293945312e+01,1.600000023841857910e+00,3.018630323481374944e-08,8.322736988475298858e-08,3.394881963729858398e+00,-1.667167060077190399e-02,-1.935530267655849457e-02
3.405000000000000000e+03,1.879999923706054688e+01,1.600000023841857910e+00,3.034820394987036707e-08,8.411834073740465101e-08,3.394916534423828125e+00,-1.666137017309665680e-02,-1.937723346054553986e-02
3.406000000000000000e+03,1.889999961853027344e+01,1.600000023841857910e+00,3.051010466492698470e-08,8.501409354266797891e-08,3.394950866699218750e+00,-1.664193905889987946e-02,-1.940152235329151154e-02
3.407000000000000000e+03,1.900000000000000000e+01,1.600000023841857910e+00,3.067200893269728113e-08,8.591460698426089948e-08,3.394984006881713867e+00,-1.661139912903308868e-02,-1.942620426416397095e-02
3.408000000000000000e+03,1.910000038146972656e+01,1.600000023841857910e+00,3.083391320046757755e-08,8.681987395675605512e-08,3.395014524459838867e+00,-1.656782999634742737e-02,-1.945041492581367493e-02
3.409000000000000000e+03,1.920000076293945312e+01,1.600000023841857910e+00,3.099581746823787398e-08,8.772990156558080344e-08,3.395041704177856445e+00,-1.650958321988582611e-02,-1.947240345180034637e-02
3.410000000000000000e+03,1.929999923706054688e+01,1.600000023841857910e+00,3.115772173600817041e-08,8.864466849445307162e-08,3.395064592361450195e+00,-1.643558591604232788e-02,-1.948950067162513733e-02
3.411000000000000000e+03,1.939999961853027344e+01,1.600000023841857910e+00,3.131962600377846684e-08,8.956421737593700527e-08,3.395081758499145508e+00,-1.634564623236656189e-02,-1.950010843575000763e-02
3.412000000000000000e+03,1.950000000000000000e+01,1.600000023841857910e+00,3.148153027154876327e-08,9.048852689375053160e-08,3.395093441009521484e+00,-1.624078862369060516e-02,-1.949998922646045685e-02
3.413000000000000000e+03,1.960000038146972656e+01,1.600000023841857910e+00,3.164343098660538089e-08,9.141759704789365060e-08,3.395099401473999023e+00,-1.612347550690174103e-02,-1.948638819158077240e-02
3.414000000000000000e+03,1.970000076293945312e+01,1.600000023841857910e+00,3.180533170166199852e-08,9.235144204922107747e-08,3.395100593566894531e+00,-1.599766686558723450e-02,-1.945647038519382477e-02
3.415000000000000000e+03,1.979999923706054688e+01,1.600000023841857910e+00,3.196722886400493735e-08,9.329002637059602421e-08,3.395098209381103516e+00,-1.586862280964851379e-02,-1.940773800015449524e-02
3.416000000000000000e+03,1.989999961853027344e+01,1.600000023841857910e+00,3.212912602634787618e-08,9.423339975000999402e-08,3.395094394683837891e+00,-1.574243232607841492e-02,-1.934033446013927460e-02
3.417000000000000000e+03,2.000000000000000000e+01,1.600000023841857910e+00,3.229101963597713620e-08,9.518154797660827171e-08,3.395091533660888672e+00,-1.562534645199775696e-02,-1.925348490476608276e-02
3.418000000000000000e+03,0.000000000000000000e+00,1.700000047683715820e+00,1.536506053719572853e-37,4.476268858341887421e-38,3.114481687545776367e+00,9.343445301055908203e-01,2.761933766305446625e-02
3.419000000000000000e+03,1.000000014901161194e-01,1.700000047683715820e+00,1.349608758083320481e-10,3.419537005985850975e-12,3.089423894882202148e+00,8.508181571960449219e-01,-6.626211106777191162e-03
3.420000000000000000e+03,2.000000029802322388e-01,1.700000047683715820e+00,2.721868008759287250e-10,1.415149854938624330e-11,3.116562366485595703e+00,7.827277183532714844e-01,1.690962910652160645e-02
3.421000000000000000e+03,3.000000119209289551e-01,1.700000047683715820e+00,4.116549046084827523e-10,3.179870949887586562e-11,3.143398761749267578e+00,7.152289748191833496e-01,3.598542138934135437e-02
3.422000000000000000e+03,4.000000059604644775e-01,1.700000047683715820e+00,5.533118963008121227e-10,5.596410140862317917e-11,3.169535160064697266e+00,6.491259932518005371e-01,5.067948997020721436e-02
3.423000000000000000e+03,5.000000000000000000e-01,1.700000047683715820e+00,6.970751198487334932e-10,8.626115793886057759e-11,3.194581985473632812e+00,5.851802825927734375e-01,6.119999662041664124e-02
3.424000000000000000e+03,6.000000238418579102e-01,1.700000047683715820e+00,8.428353015510481328e-10,1.223238038638996272e-10,3.218181610107421875e+00,5.240631103515625000e-01,6.787178665399551392e-02
3.425000000000000000e+03,6.999999880790710449e-01,1.700000047683715820e+00,9.904608244681867291e-10,1.638147811844348212e-10,3.240034103393554688e+00,4.663197994232177734e-01,7.111229747533798218e-02
3.426000000000000000e+03,8.000000119209289551e-01,1.700000047683715820e+00,1.139804028937874136e-09,2.104321994433888676e-10,3.259911060333251953e+00,4.123503267765045166e-01,7.140070945024490356e-02
3.427000000000000000e+03,8.999999761581420898e-01,1.700000047683715820e+00,1.290706097556437726e-09,2.619133521175598389e-10,3.277666568756103516e+00,3.624055385589599609e-01,6.924543529748916626e-02
3.428000000000000000e+03,1.000000000000000000e+00,1.700000047683715820e+00,1.443004049583862525e-09,3.180366525690203616e-10,3.293235301971435547e+00,3.165965080261230469e-01,6.515362858772277832e-02
3.429000000000000000e+03,1.100000023841857910e+00,1.700000047683715820e+00,1.596535237347040947e-09,3.786209124001516102e-10,3.306626558303833008e+00,2.749131619930267334e-01,5.960639566183090210e-02
3.430000000000000000e+03,1.200000047683715820e+00,1.700000047683715820e+00,1.751141787131871297e-09,4.435234679522892520e-10,3.317912817001342773e+00,2.372476905584335327e-01,5.304059013724327087e-02
3.431000000000000000e+03,1.299999952316284180e+00,1.700000047683715820e+00,1.906674595986146414e-09,5.126366553476202625e-10,3.327216148376464844e+00,2.034191042184829712e-01,4.583778232336044312e-02
3.432000000000000000e+03,1.399999976158142090e+00,1.700000047683715820e+00,2.062995330120998005e-09,5.858842855310797404e-10,3.334692239761352539e+00,1.731962561607360840e-01,3.831925615668296814e-02
3.433000000000000000e+03,1.500000000000000000e+00,1.700000047683715820e+00,2.219977313089316340e-09,6.632167592890425567e-10,3.340518236160278320e+00,1.463181078433990479e-01,3.074637055397033691e-02
3.434000000000000000e+03,1.600000023841857910e+00,1.700000047683715820e+00,2.377507302142589651e-09,7.446068761574053951e-10,3.344880342483520508e+00,1.225096508860588074e-01,2.332389540970325470e-02
3.435000000000000000e+03,1.700000047683715820e+00,1.700000047683715820e+00,2.535484266985577051e-09,8.300460874188786420e-10,3.347964525222778320e+00,1.014943495392799377e-01,1.620589755475521088e-02
3.436000000000000000e+03,1.799999952316284180e+00,1.700000047683715820e+00,2.693819611820913451e-09,9.195401107220391168e-10,3.349949598312377930e+00,8.300299942493438721e-02,9.502574801445007324e-03
3.437000000000000000e+03,1.899999976158142090e+00,1.700000047683715820e+00,2.852437397393714491e-09,1.013106487590675897e-09,3.351003646850585938e+00,6.677957624197006226e-02,3.287209430709481239e-03
3.438000000000000000e+03,2.000000000000000000e+00,1.700000047683715820e+00,3.011271010322502661e-09,1.110770697643204130e-09,3.351279735565185547e+00,5.258498340845108032e-02,-2.396752359345555305e-03
3.439000000000000000e+03,2.099999904632568359e+00,1.700000047683715820e+00,3.170263829233022079e-09,1.212564715302733021e-09,3.350914955139160156e+00,4.019883647561073303e-02,-7.529729045927524567e-03
3.440000000000000000e+03,2.200000047683715820e+00,1.700000047683715820e+00,3.329369224758238488e-09,1.318524733839865348e-09,3.350030899047851562e+00,2.941999211907386780e-02,-1.211059838533401489e-02
3.441000000000000000e+03,2.299999952316284180e+00,1.700000047683715820e+00,3.488545896601635832e-09,1.428688500837438369e-09,3.348733663558959961e+00,2.006646804511547089e-02,-1.615171320736408234e-02
3.442000000000000000e+03,2.400000095367431641e+00,1.700000047683715820e+00,3.647761426250895056e-09,1.543096539435850900e-09,3.347114562988281250e+00,1.197437290102243423e-02,-1.967570558190345764e-02
3.443000000000000000e+03,2.500000000000000000e+00,1.700000047683715820e+00,3.806987614041190682e-09,1.661787818463267286e-09,3.345251083374023438e+00,4.996951669454574585e-03,-2.271164394915103912e-02
3.444000000000000000e+03,2.599999904632568359e+00,1.700000047683715820e+00,3.966202033467425281e-09,1.784802083903969105e-09,3.343209266662597656e+00,-9.969103848561644554e-04,-2.529327198863029480e-02
3.445000000000000000e+03,2.700000047683715820e+00,1.700000047683715820e+00,4.125387143005809776e-09,1.912177749474608390e-09,3.341044664382934570e+00,-6.124013569205999374e-03,-2.745662070810794830e-02
3.446000000000000000e+03,2.799999952316284180e+00,1.700000047683715820e+00,4.284527399533999414e-09,2.043951008445787920e-09,3.338802814483642578e+00,-1.048819907009601593e-02,-2.923851460218429565e-02
3.447000000000000000e+03,2.900000095367431641e+00,1.700000047683715820e+00,4.443612144910957795e-09,2.180157165909690775e-09,3.336521625518798828e+00,-1.418174989521503448e-02,-3.067595139145851135e-02
3.448000000000000000e+03,3.000000000000000000e+00,1.700000047683715820e+00,4.602632053263278067e-09,2.320828418334031085e-09,3.334232091903686523e+00,-1.728654280304908752e-02,-3.180459141731262207e-02
3.449000000000000000e+03,3.099999904632568359e+00,1.700000047683715820e+00,4.761580463252812478e-09,2.465995629918893428e-09,3.331959247589111328e+00,-1.987523585557937622e-02,-3.265888616442680359e-02
3.450000000000000000e+03,3.200000047683715820e+00,1.700000047683715820e+00,4.920453378076672379e-09,2.615687888507522985e-09,3.329722881317138672e+00,-2.201225794851779938e-02,-3.327124193310737610e-02
3.451000000000000000e+03,3.299999952316284180e+00,1.700000047683715820e+00,5.079246800931969119e-09,2.769930951274091058e-09,3.327538728713989258e+00,-2.375472895801067352e-02,-3.367176651954650879e-02
3.452000000000000000e+03,3.400000095367431641e+00,1.700000047683715820e+00,5.237959843640282998e-09,2.928749465169744326e-09,3.325419187545776367e+00,-2.515329793095588684e-02,-3.388863801956176758e-02
3.453000000000000000e+03,3.500000000000000000e+00,1.700000047683715820e+00,5.396590285755564764e-09,3.092164968521160517e-09,3.323372840881347656e+00,-2.625284530222415924e-02,-3.394733369350433350e-02
3.454000000000000000e+03,3.599999904632568359e+00,1.700000047683715820e+00,5.555139459545443970e-09,3.260198333521202585e-09,3.321407079696655273e+00,-2.709315344691276550e-02,-3.387137129902839661e-02
3.455000000000000000e+03,3.700000047683715820e+00,1.700000047683715820e+00,5.713608253188340313e-09,3.432868211916684231e-09,3.319525957107543945e+00,-2.770946174860000610e-02,-3.368189558386802673e-02
3.456000000000000000e+03,3.799999952316284180e+00,1.700000047683715820e+00,5.871997110773463646e-09,3.610190368874555134e-09,3.317732572555541992e+00,-2.813296765089035034e-02,-3.339778259396553040e-02
3.457000000000000000e+03,3.900000095367431641e+00,1.700000047683715820e+00,6.030309140925282918e-09,3.792180791606369894e-09,3.316028594970703125e+00,-2.839128673076629639e-02,-3.303620964288711548e-02
3.458000000000000000e+03,4.000000000000000000e+00,1.700000047683715820e+00,6.188545675911427679e-09,3.978851914610004314e-09,3.314414262771606445e+00,-2.850883454084396362e-02,-3.261210024356842041e-02
3.459000000000000000e+03,4.099999904632568359e+00,1.700000047683715820e+00,6.346709380267157030e-09,4.170216616472544047e-09,3.312889099121093750e+00,-2.850717678666114807e-02,-3.213894367218017578e-02
3.460000000000000000e+03,4.199999809265136719e+00,1.700000047683715820e+00,6.504803362616939921e-09,4.366285111245815642e-09,3.311451911926269531e+00,-2.840534597635269165e-02,-3.162842243909835815e-02
3.461000000000000000e+03,4.300000190734863281e+00,1.700000047683715820e+00,6.662830731585245303e-09,4.567068057070855502e-09,3.310100555419921875e+00,-2.822010032832622528e-02,-3.109087608754634857e-02
3.462000000000000000e+03,4.400000095367431641e+00,1.700000047683715820e+00,6.820793707618122426e-09,4.772572559375021228e-09,3.308832883834838867e+00,-2.796618826687335968e-02,-3.053493797779083252e-02
3.463000000000000000e+03,4.500000000000000000e+00,1.700000047683715820e+00,6.978695399340040240e-09,4.982806167674880271e-09,3.307646274566650391e+00,-2.765654027462005615e-02,-2.996854297816753387e-02
3.464000000000000000e+03,4.599999904632568359e+00,1.700000047683715820e+00,7.136539359464677545e-09,5.197775987397790232e-09,3.306537628173828125e+00,-2.730248309671878815e-02,-2.939817681908607483e-02
3.465000000000000000e+03,4.699999809265136719e+00,1.700000047683715820e+00,7.294328696616503294e-09,5.417487347614269311e-09,3.305503845214843750e+00,-2.691390365362167358e-02,-2.882940880954265594e-02
3.466000000000000000e+03,4.800000190734863281e+00,1.700000047683715820e+00,7.452067407598406135e-09,5.641946909662465259e-09,3.304541587829589844e+00,-2.649939805269241333e-02,-2.826701104640960693e-02
3.467000000000000000e+03,4.900000095367431641e+00,1.700000047683715820e+00,7.609755492410386069e-09,5.871156449899217478e-09,3.303647756576538086e+00,-2.606642991304397583e-02,-2.771461196243762970e-02
3.468000000000000000e+03,5.000000000000000000e+00,1.700000047683715820e+00,7.767399168301380996e-09,6.105120409216624466e-09,3.302819013595581055e+00,-2.562142349779605865e-02,-2.717567048966884613e-02
3.469000000000000000e+03,5.099999904632568359e+00,1.700000047683715820e+00,7.924998435271390917e-09,6.343842340328365026e-09,3.302051544189453125e+00,-2.516990527510643005e-02,-2.665267139673233032e-02
3.470000000000000000e+03,5.199999809265136719e+00,1.700000047683715820e+00,8.082558622390934033e-09,6.587324907769698257e-09,3.301342248916625977e+00,-2.471658773720264435e-02,-2.614764124155044556e-02
3.471000000000000000e+03,5.300000190734863281e+00,1.700000047683715820e+00,8.240081506016849744e-09,6.835571664254302959e-09,3.300688028335571289e+00,-2.426545880734920502e-02,-2.566221542656421661e-02
3.472000000000000000e+03,5.400000095367431641e+00,1.700000047683715820e+00,8.397568862505977449e-09,7.088581277514549583e-09,3.300085306167602539e+00,-2.381988242268562317e-02,-2.519726380705833435e-02
3.473000000000000000e+03,5.500000000000000000e+00,1.700000047683715820e+00,8.555023356393576250e-09,7.346357300264116930e-09,3.299531221389770508e+00,-2.338263951241970062e-02,-2.475382946431636810e-02
3.474000000000000000e+03,5.599999904632568359e+00,1.700000047683715820e+00,8.712446764036485547e-09,7.608900176592214848e-09,3.299022674560546875e+00,-2.295602485537528992e-02,-2.433228865265846252e-02
3.475000000000000000e+03,5.699999809265136719e+00,1.700000047683715820e+00,8.869842638148384140e-09,7.876212571034102439e-09,3.298556566238403320e+00,-2.254188619554042816e-02,-2.393284812569618225e-02
3.476000000000000000e+03,5.800000190734863281e+00,1.700000047683715820e+00,9.027213643264531129e-09,8.148293595411360002e-09,3.298130273818969727e+00,-2.214168384671211243e-02,-2.355556562542915344e-02
3.477000000000000000e+03,5.900000095367431641e+00,1.700000047683715820e+00,9.184559779384926514e-09,8.425144137902407238e-09,3.297740936279296875e+00,-2.175655029714107513e-02,-2.319996617734432220e-02
3.478000000000000000e+03,6.000000000000000000e+00,1.700000047683715820e+00,9.341883711044829397e-09,8.706764198507244146e-09,3.297386169433593750e+00,-2.138731069862842560e-02,-2.286595106124877930e-02
3.479000000000000000e+03,6.099999904632568359e+00,1.700000047683715820e+00,9.499187214601079177e-09,8.993153777225870726e-09,3.297063350677490234e+00,-2.103454060852527618e-02,-2.255293540656566620e-02
3.480000000000000000e+03,6.199999809265136719e+00,1.700000047683715820e+00,9.656471178232095554e-09,9.284313762236706680e-09,3.296770095825195312e+00,-2.069859206676483154e-02,-2.226031944155693054e-02
3.481000000000000000e+03,6.300000190734863281e+00,1.700000047683715820e+00,9.813739154651557328e-09,9.580245929896591406e-09,3.296504497528076172e+00,-2.037962153553962708e-02,-2.198750711977481842e-02
3.482000000000000000e+03,6.400000095367431641e+00,1.700000047683715820e+00,9.970991143859464501e-09,9.880945839313426404e-09,3.296264171600341797e+00,-2.007763646543025970e-02,-2.173348516225814819e-02
3.483000000000000000e+03,6.500000000000000000e+00,1.700000047683715820e+00,1.012822803403423677e-08,1.018641615502247078e-08,3.296047449111938477e+00,-1.979249343276023865e-02,-2.149772830307483673e-02
3.484000000000000000e+03,6.599999904632568359e+00,1.700000047683715820e+00,1.028545248971113324e-08,1.049665510066688512e-08,3.295852184295654297e+00,-1.952394098043441772e-02,-2.127932943403720856e-02
3.485000000000000000e+03,6.699999809265136719e+00,1.700000047683715820e+00,1.044266451089015391e-08,1.081166356442508913e-08,3.295676708221435547e+00,-1.927162706851959229e-02,-2.107743918895721436e-02
3.486000000000000000e+03,6.800000190734863281e+00,1.700000047683715820e+00,1.059986676210655787e-08,1.113144332265392222e-08,3.295519351959228516e+00,-1.903512515127658844e-02,-2.089129015803337097e-02
3.487000000000000000e+03,6.900000095367431641e+00,1.700000047683715820e+00,1.075705835518192544e-08,1.145598904628286618e-08,3.295378684997558594e+00,-1.881394349038600922e-02,-2.071976289153099060e-02
3.488000000000000000e+03,7.000000000000000000e+00,1.700000047683715820e+00,1.091424017829467630e-08,1.178530339984718012e-08,3.295253276824951172e+00,-1.860754191875457764e-02,-2.056227438151836395e-02
3.489000000000000000e+03,7.099999904632568359e+00,1.700000047683715820e+00,1.107141489598006956e-08,1.211938460699002462e-08,3.295141935348510742e+00,-1.841534301638603210e-02,-2.041790448129177094e-02
3.490000000000000000e+03,7.199999809265136719e+00,1.700000047683715820e+00,1.122858250823810522e-08,1.245823444406823910e-08,3.295043230056762695e+00,-1.823674142360687256e-02,-2.028583735227584839e-02
3.491000000000000000e+03,7.300000190734863281e+00,1.700000047683715820e+00,1.138574390324720298e-08,1.280185202290340385e-08,3.294955730438232422e+00,-1.807111129164695740e-02,-2.016536332666873932e-02
3.492000000000000000e+03,7.400000095367431641e+00,1.700000047683715820e+00,1.154289819282894314e-08,1.315023379078184007e-08,3.294878959655761719e+00,-1.791782304644584656e-02,-2.005544863641262054e-02
3.493000000000000000e+03,7.500000000000000000e+00,1.700000047683715820e+00,1.170004804151858480e-08,1.350338241223880686e-08,3.294811725616455078e+00,-1.777623780071735382e-02,-1.995561830699443817e-02
3.494000000000000000e+03,7.599999904632568359e+00,1.700000047683715820e+00,1.185719256113770825e-08,1.386129611091746483e-08,3.294752836227416992e+00,-1.764572039246559143e-02,-1.986507885158061981e-02
3.495000000000000000e+03,7.699999809265136719e+00,1.700000047683715820e+00,1.201433352804315291e-08,1.422397577499623367e-08,3.294701814651489258e+00,-1.752564311027526855e-02,-1.978315226733684540e-02
3.496000000000000000e+03,7.800000190734863281e+00,1.700000047683715820e+00,1.217147183041333847e-08,1.459142140447511338e-08,3.294657707214355469e+00,-1.741538569331169128e-02,-1.970927789807319641e-02
3.497000000000000000e+03,7.900000095367431641e+00,1.700000047683715820e+00,1.232860569189142552e-08,1.496363033481884486e-08,3.294619798660278320e+00,-1.731434836983680725e-02,-1.964257471263408661e-02
3.498000000000000000e+03,8.000000000000000000e+00,1.700000047683715820e+00,1.248573688883425348e-08,1.534060167784900841e-08,3.294587373733520508e+00,-1.722194440662860870e-02,-1.958273164927959442e-02
3.499000000000000000e+03,8.100000381469726562e+00,1.700000047683715820e+00,1.264286542124182233e-08,1.572234076263612224e-08,3.294560194015502930e+00,-1.713760569691658020e-02,-1.952920854091644287e-02
3.500000000000000000e+03,8.199999809265136719e+00,1.700000047683715820e+00,1.279999128911413209e-08,1.610883693103914993e-08,3.294537305831909180e+00,-1.706078648567199707e-02,-1.948112249374389648e-02
3.501000000000000000e+03,8.300000190734863281e+00,1.700000047683715820e+00,1.295711626880802214e-08,1.650010261755596730e-08,3.294518232345581055e+00,-1.699096336960792542e-02,-1.943862810730934143e-02
3.502000000000000000e+03,8.399999618530273438e+00,1.700000047683715820e+00,1.311423858396665310e-08,1.689612538768869854e-08,3.294502735137939453e+00,-1.692763529717922211e-02,-1.940054632723331451e-02
3.503000000000000000e+03,8.500000000000000000e+00,1.700000047683715820e+00,1.327136089912528405e-08,1.729691412322154065e-08,3.294490337371826172e+00,-1.687032356858253479e-02,-1.936718262732028961e-02
3.504000000000000000e+03,8.600000381469726562e+00,1.700000047683715820e+00,1.342848143792707560e-08,1.770246704779765423e-08,3.294480800628662109e+00,-1.681857556104660034e-02,-1.933759823441505432e-02
3.505000000000000000e+03,8.699999809265136719e+00,1.700000047683715820e+00,1.358560020037202776e-08,1.811277527963284228e-08,3.294473409652709961e+00,-1.677196286618709564e-02,-1.931142620742321014e-02
3.506000000000000000e+03,8.800000190734863281e+00,1.700000047683715820e+00,1.374271896281697991e-08,1.852785125322498061e-08,3.294468164443969727e+00,-1.673007756471633911e-02,-1.928887516260147095e-02
3.507000000000000000e+03,8.899999618530273438e+00,1.700000047683715820e+00,1.389983594890509266e-08,1.894768431043303281e-08,3.294464588165283203e+00,-1.669253781437873840e-02,-1.926890201866626740e-02
3.508000000000000000e+03,9.000000000000000000e+00,1.700000047683715820e+00,1.405695382317162512e-08,1.937228333304119587e-08,3.294462680816650391e+00,-1.665898412466049194e-02,-1.925194449722766876e-02
3.509000000000000000e+03,9.100000381469726562e+00,1.700000047683715820e+00,1.421407080925973787e-08,1.980164121562211221e-08,3.294461965560913086e+00,-1.662908121943473816e-02,-1.923719048500061035e-02
3.510000000000000000e+03,9.199999809265136719e+00,1.700000047683715820e+00,1.437118601899101122e-08,2.023575795817578182e-08,3.294462442398071289e+00,-1.660251058638095856e-02,-1.922439225018024445e-02
3.511000000000000000e+03,9.300000190734863281e+00,1.700000047683715820e+00,1.452830300507912398e-08,2.067463888977272291e-08,3.294463872909545898e+00,-1.657897979021072388e-02,-1.921387389302253723e-02
3.512000000000000000e+03,9.399999618530273438e+00,1.700000047683715820e+00,1.468541821481039733e-08,2.111827512862873846e-08,3.294466018676757812e+00,-1.655821502208709717e-02,-1.920469477772712708e-02
3.513000000000000000e+03,9.500000000000000000e+00,1.700000047683715820e+00,1.484253431272009038e-08,2.156667733288486488e-08,3.294468879699707031e+00,-1.653995923697948456e-02,-1.919739879667758942e-02
3.514000000000000000e+03,9.600000381469726562e+00,1.700000047683715820e+00,1.499965129880820314e-08,2.201984017347058398e-08,3.294472217559814453e+00,-1.652397960424423218e-02,-1.919126510620117188e-02
3.515000000000000000e+03,9.699999809265136719e+00,1.700000047683715820e+00,1.515676473218263709e-08,2.247775654495853814e-08,3.294476032257080078e+00,-1.651005633175373077e-02,-1.918613724410533905e-02
3.516000000000000000e+03,9.800000190734863281e+00,1.700000047683715820e+00,1.531388171827074984e-08,2.294043888184660318e-08,3.294480085372924805e+00,-1.649798639118671417e-02,-1.918241940438747406e-02
3.517000000000000000e+03,9.899999618530273438e+00,1.700000047683715820e+00,1.547099692800202320e-08,2.340787652599374269e-08,3.294484376907348633e+00,-1.648758351802825928e-02,-1.917925290763378143e-02
3.518000000000000000e+03,1.000000000000000000e+01,1.700000047683715820e+00,1.562811213773329655e-08,2.388008013554099307e-08,3.294488906860351562e+00,-1.647867821156978607e-02,-1.917724870145320892e-02
3.519000000000000000e+03,1.010000038146972656e+01,1.700000047683715820e+00,1.578522912382140930e-08,2.435704082870415732e-08,3.294493436813354492e+00,-1.647111028432846069e-02,-1.917576044797897339e-02
3.520000000000000000e+03,1.019999980926513672e+01,1.700000047683715820e+00,1.594234433355268266e-08,2.483875860548323544e-08,3.294497966766357422e+00,-1.646473817527294159e-02,-1.917467266321182251e-02
3.521000000000000000e+03,1.030000019073486328e+01,1.700000047683715820e+00,1.609946131964079541e-08,2.532523879494874564e-08,3.294502735137939453e+00,-1.645942963659763336e-02,-1.917448453605175018e-02
3.522000000000000000e+03,1.039999961853027344e+01,1.700000047683715820e+00,1.625657652937206876e-08,2.581647606803016970e-08,3.294507265090942383e+00,-1.645506359636783600e-02,-1.917434670031070709e-02
3.523000000000000000e+03,1.050000000000000000e+01,1.700000047683715820e+00,1.641369351546018152e-08,2.631247575379802583e-08,3.294511795043945312e+00,-1.645153202116489410e-02,-1.917496323585510254e-02
3.524000000000000000e+03,1.060000038146972656e+01,1.700000047683715820e+00,1.657081050154829427e-08,2.681323607589547464e-08,3.294516086578369141e+00,-1.644873246550559998e-02,-1.917569339275360107e-02
3.525000000000000000e+03,1.069999980926513672e+01,1.700000047683715820e+00,1.672792748763640702e-08,2.731874992889515852e-08,3.294520378112792969e+00,-1.644657738506793976e-02,-1.917648687958717346e-02
3.526000000000000000e+03,1.080000019073486328e+01,1.700000047683715820e+00,1.688504447372451978e-08,2.782902797093811387e-08,3.294524669647216797e+00,-1.644498296082019806e-02,-1.917787082493305206e-02
3.527000000000000000e+03,1.089999961853027344e+01,1.700000047683715820e+00,1.704216145981263253e-08,2.834406132024014369e-08,3.294528484344482422e+00,-1.644387654960155487e-02,-1.917903497815132141e-02
3.528000000000000000e+03,1.100000000000000000e+01,1.700000047683715820e+00,1.719927844590074528e-08,2.886385708222860558e-08,3.294532299041748047e+00,-1.644319295883178711e-02,-1.918070949614048004e-02
3.529000000000000000e+03,1.110000038146972656e+01,1.700000047683715820e+00,1.735639720834569744e-08,2.938841525690349954e-08,3.294536113739013672e+00,-1.644287072122097015e-02,-1.918228715658187866e-02
3.530000000000000000e+03,1.119999980926513672e+01,1.700000047683715820e+00,1.751351419443381019e-08,2.991772518612378917e-08,3.294539451599121094e+00,-1.644285768270492554e-02,-1.918374001979827881e-02
3.531000000000000000e+03,1.130000019073486328e+01,1.700000047683715820e+00,1.767063295687876234e-08,3.045180108074418968e-08,3.294542789459228516e+00,-1.644310541450977325e-02,-1.918562129139900208e-02
3.532000000000000000e+03,1.139999961853027344e+01,1.700000047683715820e+00,1.782774994296687510e-08,3.099062695355314645e-08,3.294545888900756836e+00,-1.644357107579708099e-02,-1.918713934719562531e-02
3.533000000000000000e+03,1.150000000000000000e+01,1.700000047683715820e+00,1.798486870541182725e-08,3.153422056811905350e-08,3.294548988342285156e+00,-1.644421555101871490e-02,-1.918904483318328857e-02
3.534000000000000000e+03,1.160000038146972656e+01,1.700000047683715820e+00,1.814198746785677940e-08,3.208257481901455321e-08,3.294551849365234375e+00,-1.644500903785228729e-02,-1.919074915349483490e-02
3.535000000000000000e+03,1.169999980926513672e+01,1.700000047683715820e+00,1.829910445394489216e-08,3.263567904809860920e-08,3.294554471969604492e+00,-1.644591987133026123e-02,-1.919223740696907043e-02
3.536000000000000000e+03,1.180000019073486328e+01,1.700000047683715820e+00,1.845622499274668371e-08,3.319355101893961546e-08,3.294556856155395508e+00,-1.644692197442054749e-02,-1.919407583773136139e-02
3.537000000000000000e+03,1.189999961853027344e+01,1.700000047683715820e+00,1.861334197883479646e-08,3.375617296796917799e-08,3.294559240341186523e+00,-1.644799299538135529e-02,-1.919548586010932922e-02
3.538000000000000000e+03,1.200000000000000000e+01,1.700000047683715820e+00,1.877046251763658802e-08,3.432356265875569079e-08,3.294561386108398438e+00,-1.644911430776119232e-02,-1.919723302125930786e-02
3.539000000000000000e+03,1.210000038146972656e+01,1.700000047683715820e+00,1.892758128008154017e-08,3.489570943315811746e-08,3.294563293457031250e+00,-1.645026728510856628e-02,-1.919873245060443878e-02
3.540000000000000000e+03,1.219999980926513672e+01,1.700000047683715820e+00,1.908470004252649233e-08,3.547261329117645801e-08,3.294565200805664062e+00,-1.645143702626228333e-02,-1.919998042285442352e-02
3.541000000000000000e+03,1.230000019073486328e+01,1.700000047683715820e+00,1.924181880497144448e-08,3.605427778552439122e-08,3.294566869735717773e+00,-1.645261235535144806e-02,-1.920155063271522522e-02
3.542000000000000000e+03,1.239999961853027344e+01,1.700000047683715820e+00,1.939893756741639663e-08,3.664069581077455950e-08,3.294568300247192383e+00,-1.645378023386001587e-02,-1.920267194509506226e-02
3.543000000000000000e+03,1.250000000000000000e+01,1.700000047683715820e+00,1.955605810621818819e-08,3.723188157778167806e-08,3.294569969177246094e+00,-1.645493507385253906e-02,-1.920411363244056702e-02
3.544000000000000000e+03,1.260000038146972656e+01,1.700000047683715820e+00,1.971317686866314034e-08,3.782782442840471049e-08,3.294571161270141602e+00,-1.645606756210327148e-02,-1.920529641211032867e-02
3.545000000000000000e+03,1.269999980926513672e+01,1.700000047683715820e+00,1.987029563110809249e-08,3.842852080992997799e-08,3.294572353363037109e+00,-1.645717211067676544e-02,-1.920622214674949646e-02
3.546000000000000000e+03,1.280000019073486328e+01,1.700000047683715820e+00,2.002741616990988405e-08,3.903398138049851696e-08,3.294573545455932617e+00,-1.645824313163757324e-02,-1.920746825635433197e-02
3.547000000000000000e+03,1.289999961853027344e+01,1.700000047683715820e+00,2.018453493235483620e-08,3.964419548196929100e-08,3.294574499130249023e+00,-1.645927689969539642e-02,-1.920826546847820282e-02
3.548000000000000000e+03,1.300000000000000000e+01,1.700000047683715820e+00,2.034165547115662775e-08,4.025917732519701531e-08,3.294575452804565430e+00,-1.646027341485023499e-02,-1.920938491821289062e-02
3.549000000000000000e+03,1.310000038146972656e+01,1.700000047683715820e+00,2.049877600995841931e-08,4.087891625204065349e-08,3.294576406478881836e+00,-1.646122522652149200e-02,-1.921025104820728302e-02
3.550000000000000000e+03,1.319999980926513672e+01,1.700000047683715820e+00,2.065589477240337146e-08,4.150340515707284794e-08,3.294577121734619141e+00,-1.646213605999946594e-02,-1.921086758375167847e-02
3.551000000000000000e+03,1.330000019073486328e+01,1.700000047683715820e+00,2.081301531120516302e-08,4.213266180386199267e-08,3.294577836990356445e+00,-1.646300405263900757e-02,-1.921181194484233856e-02
3.552000000000000000e+03,1.339999961853027344e+01,1.700000047683715820e+00,2.097013407365011517e-08,4.276667198155337246e-08,3.294578552246093750e+00,-1.646382734179496765e-02,-1.921231858432292938e-02
3.553000000000000000e+03,1.350000000000000000e+01,1.700000047683715820e+00,2.112725461245190672e-08,4.340544634828802373e-08,3.294579029083251953e+00,-1.646460965275764465e-02,-1.921315863728523254e-02
3.554000000000000000e+03,1.360000038146972656e+01,1.700000047683715820e+00,2.128437515125369828e-08,4.404898135135226767e-08,3.294579505920410156e+00,-1.646534912288188934e-02,-1.921375654637813568e-02
3.555000000000000000e+03,1.369999980926513672e+01,1.700000047683715820e+00,2.144149391369865043e-08,4.469726988531874667e-08,3.294579982757568359e+00,-1.646604761481285095e-02,-1.921411603689193726e-02
3.556000000000000000e+03,1.380000019073486328e+01,1.700000047683715820e+00,2.159861445250044198e-08,4.535031905561481835e-08,3.294580459594726562e+00,-1.646670885384082794e-02,-1.921481639146804810e-02
3.557000000000000000e+03,1.389999961853027344e+01,1.700000047683715820e+00,2.175573321494539414e-08,4.600812530952680390e-08,3.294580936431884766e+00,-1.646733470261096954e-02,-1.921509020030498505e-02
3.558000000000000000e+03,1.400000000000000000e+01,1.700000047683715820e+00,2.191285553010402509e-08,4.667069575248206093e-08,3.294581174850463867e+00,-1.646792702376842499e-02,-1.921571232378482819e-02
3.559000000000000000e+03,1.410000038146972656e+01,1.700000047683715820e+00,2.206997606890581665e-08,4.733802327905323182e-08,3.294581413269042969e+00,-1.646848954260349274e-02,-1.921610347926616669e-02
3.560000000000000000e+03,1.419999980926513672e+01,1.700000047683715820e+00,2.222709483135076880e-08,4.801010788924031658e-08,3.294581651687622070e+00,-1.646902598440647125e-02,-1.921627111732959747e-02
3.561000000000000000e+03,1.430000019073486328e+01,1.700000047683715820e+00,2.238421537015256035e-08,4.868695313575699402e-08,3.294581890106201172e+00,-1.646953821182250977e-02,-1.921679079532623291e-02
3.562000000000000000e+03,1.439999961853027344e+01,1.700000047683715820e+00,2.254133413259751251e-08,4.936855191317590652e-08,3.294582128524780273e+00,-1.647003367543220520e-02,-1.921689882874488831e-02
3.563000000000000000e+03,1.450000000000000000e+01,1.700000047683715820e+00,2.269845467139930406e-08,5.005491843235176930e-08,3.294582366943359375e+00,-1.647051610052585602e-02,-1.921736635267734528e-02
3.564000000000000000e+03,1.460000038146972656e+01,1.700000047683715820e+00,2.285557698655793502e-08,5.074604558785722475e-08,3.294582605361938477e+00,-1.647099293768405914e-02,-1.921761780977249146e-02
3.565000000000000000e+03,1.469999980926513672e+01,1.700000047683715820e+00,2.301269574900288717e-08,5.144191916883755766e-08,3.294582605361938477e+00,-1.647146604955196381e-02,-1.921765692532062531e-02
3.566000000000000000e+03,1.480000019073486328e+01,1.700000047683715820e+00,2.316981628780467872e-08,5.214256404428851965e-08,3.294582843780517578e+00,-1.647194661200046539e-02,-1.921806298196315765e-02
3.567000000000000000e+03,1.489999961853027344e+01,1.700000047683715820e+00,2.332693505024963088e-08,5.284795889792803791e-08,3.294583082199096680e+00,-1.647244021296501160e-02,-1.921807043254375458e-02
3.568000000000000000e+03,1.500000000000000000e+01,1.700000047683715820e+00,2.348405558905142243e-08,5.355811794061082765e-08,3.294583082199096680e+00,-1.647295616567134857e-02,-1.921845041215419769e-02
3.569000000000000000e+03,1.510000038146972656e+01,1.700000047683715820e+00,2.364117790421005338e-08,5.427304117233688885e-08,3.294583320617675781e+00,-1.647350564599037170e-02,-1.921863108873367310e-02
3.570000000000000000e+03,1.519999980926513672e+01,1.700000047683715820e+00,2.379829666665500554e-08,5.499271082953782752e-08,3.294583559036254883e+00,-1.647409796714782715e-02,-1.921861618757247925e-02
3.571000000000000000e+03,1.530000019073486328e+01,1.700000047683715820e+00,2.395541720545679709e-08,5.571715178120939527e-08,3.294583797454833984e+00,-1.647474803030490875e-02,-1.921898499131202698e-02
3.572000000000000000e+03,1.539999961853027344e+01,1.700000047683715820e+00,2.411253774425858865e-08,5.644633915835584048e-08,3.294584035873413086e+00,-1.647546701133251190e-02,-1.921897381544113159e-02
3.573000000000000000e+03,1.550000000000000000e+01,1.700000047683715820e+00,2.426965828306038020e-08,5.718029782997291477e-08,3.294584512710571289e+00,-1.647627167403697968e-02,-1.921935752034187317e-02
3.574000000000000000e+03,1.560000038146972656e+01,1.700000047683715820e+00,2.442677882186217175e-08,5.791901358520590293e-08,3.294584751129150391e+00,-1.647718064486980438e-02,-1.921956241130828857e-02
3.575000000000000000e+03,1.569999980926513672e+01,1.700000047683715820e+00,2.458389758430712391e-08,5.866247931862744736e-08,3.294585466384887695e+00,-1.647821441292762756e-02,-1.921959780156612396e-02
3.576000000000000000e+03,1.580000019073486328e+01,1.700000047683715820e+00,2.474101989946575486e-08,5.941071279380594206e-08,3.294585943222045898e+00,-1.647939346730709076e-02,-1.922004483640193939e-02
3.577000000000000000e+03,1.589999961853027344e+01,1.700000047683715820e+00,2.489813866191070701e-08,6.016369979988667183e-08,3.294586658477783203e+00,-1.648074388504028320e-02,-1.922014541923999786e-02
3.578000000000000000e+03,1.600000000000000000e+01,1.700000047683715820e+00,2.505526097706933797e-08,6.092145099501067307e-08,3.294587612152099609e+00,-1.648229360580444336e-02,-1.922067813575267792e-02
3.579000000000000000e+03,1.610000038146972656e+01,1.700000047683715820e+00,2.521238151587112952e-08,6.168396282646426698e-08,3.294588804244995117e+00,-1.648407243192195892e-02,-1.922107487916946411e-02
3.580000000000000000e+03,1.620000076293945312e+01,1.700000047683715820e+00,2.536950383102976048e-08,6.245122818882009597e-08,3.294589996337890625e+00,-1.648611202836036682e-02,-1.922154426574707031e-02
3.581000000000000000e+03,1.629999923706054688e+01,1.700000047683715820e+00,2.552662081711787323e-08,6.322324708207816002e-08,3.294591665267944336e+00,-1.648845151066780090e-02,-1.922171562910079956e-02
3.582000000000000000e+03,1.639999961853027344e+01,1.700000047683715820e+00,2.568374313227650418e-08,6.400003371709317435e-08,3.294593572616577148e+00,-1.649112999439239502e-02,-1.922275871038436890e-02
3.583000000000000000e+03,1.650000000000000000e+01,1.700000047683715820e+00,2.584086544743513514e-08,6.478158098843778134e-08,3.294595956802368164e+00,-1.649419032037258148e-02,-1.922354288399219513e-02
3.584000000000000000e+03,1.660000038146972656e+01,1.700000047683715820e+00,2.599798598623692669e-08,6.556788179068462341e-08,3.294598579406738281e+00,-1.649767719209194183e-02,-1.922447420656681061e-02
3.585000000000000000e+03,1.670000076293945312e+01,1.700000047683715820e+00,2.615510830139555765e-08,6.635895033468841575e-08,3.294601678848266602e+00,-1.650163903832435608e-02,-1.922558248043060303e-02
3.586000000000000000e+03,1.679999923706054688e+01,1.700000047683715820e+00,2.631222884019734920e-08,6.715475819873972796e-08,3.294605493545532227e+00,-1.650612615048885345e-02,-1.922651194036006927e-02
3.587000000000000000e+03,1.689999961853027344e+01,1.700000047683715820e+00,2.646935115535598015e-08,6.795534090997534804e-08,3.294609785079956055e+00,-1.651118323206901550e-02,-1.922845654189586639e-02
3.588000000000000000e+03,1.700000000000000000e+01,1.700000047683715820e+00,2.662647347051461111e-08,6.876068425754056079e-08,3.294615030288696289e+00,-1.651686429977416992e-02,-1.923030614852905273e-02
3.589000000000000000e+03,1.710000038146972656e+01,1.700000047683715820e+00,2.678359756203008146e-08,6.957078113600800862e-08,3.294620990753173828e+00,-1.652321219444274902e-02,-1.923249475657939911e-02
3.590000000000000000e+03,1.720000076293945312e+01,1.700000047683715820e+00,2.694072165354555182e-08,7.038563865080504911e-08,3.294627904891967773e+00,-1.653026603162288666e-02,-1.923508010804653168e-02
3.591000000000000000e+03,1.729999923706054688e+01,1.700000047683715820e+00,2.709784219234734337e-08,7.120524259107696707e-08,3.294636011123657227e+00,-1.653805747628211975e-02,-1.923774555325508118e-02
3.592000000000000000e+03,1.739999961853027344e+01,1.700000047683715820e+00,2.725496628386281373e-08,7.202962137853319291e-08,3.294645071029663086e+00,-1.654660142958164215e-02,-1.924172230064868927e-02
3.593000000000000000e+03,1.750000000000000000e+01,1.700000047683715820e+00,2.741209215173512348e-08,7.285875369689165382e-08,3.294655561447143555e+00,-1.655589230358600616e-02,-1.924594677984714508e-02
3.594000000000000000e+03,1.760000038146972656e+01,1.700000047683715820e+00,2.756921801960743323e-08,7.369264665157970740e-08,3.294667482376098633e+00,-1.656590215861797333e-02,-1.925090141594409943e-02
3.595000000000000000e+03,1.770000076293945312e+01,1.700000047683715820e+00,2.772634566383658239e-08,7.453130024259735364e-08,3.294681072235107422e+00,-1.657655835151672363e-02,-1.925670169293880463e-02
3.596000000000000000e+03,1.779999923706054688e+01,1.700000047683715820e+00,2.788346975535205274e-08,7.537469315366251976e-08,3.294696331024169922e+00,-1.658774912357330322e-02,-1.926309056580066681e-02
3.597000000000000000e+03,1.789999961853027344e+01,1.700000047683715820e+00,2.804059917593804130e-08,7.622286801733935135e-08,3.294713497161865234e+00,-1.659929752349853516e-02,-1.927135698497295380e-02
3.598000000000000000e+03,1.800000000000000000e+01,1.700000047683715820e+00,2.819772859652402985e-08,7.707579641191841802e-08,3.294732332229614258e+00,-1.661095023155212402e-02,-1.928049698472023010e-02
3.599000000000000000e+03,1.810000038146972656e+01,1.700000047683715820e+00,2.835485979346685781e-08,7.793347833739971975e-08,3.294753313064575195e+00,-1.662235707044601440e-02,-1.929104886949062347e-02
3.600000000000000000e+03,1.820000076293945312e+01,1.700000047683715820e+00,2.851199276676652516e-08,7.879592800463797175e-08,3.294776201248168945e+00,-1.663305982947349548e-02,-1.930316165089607239e-02
3.601000000000000000e+03,1.829999923706054688e+01,1.700000047683715820e+00,2.866912396370935312e-08,7.966310988649638603e-08,3.294800758361816406e+00,-1.664245873689651489e-02,-1.931658387184143066e-02
3.602000000000000000e+03,1.839999961853027344e+01,1.700000047683715820e+00,2.882625871336585988e-08,8.053507372096646577e-08,3.294827461242675781e+00,-1.664980128407478333e-02,-1.933257281780242920e-02
3.603000000000000000e+03,1.850000000000000000e+01,1.700000047683715820e+00,2.898339523937920603e-08,8.141179108633878059e-08,3.294855356216430664e+00,-1.665416359901428223e-02,-1.935001835227012634e-02
3.604000000000000000e+03,1.860000038146972656e+01,1.700000047683715820e+00,2.914053176539255219e-08,8.229326908804068808e-08,3.294884443283081055e+00,-1.665443927049636841e-02,-1.936925388872623444e-02
3.605000000000000000e+03,1.870000076293945312e+01,1.700000047683715820e+00,2.929767184411957714e-08,8.317950772607218823e-08,3.294914245605468750e+00,-1.664934307336807251e-02,-1.939009688794612885e-02
3.606000000000000000e+03,1.879999923706054688e+01,1.700000047683715820e+00,2.945480837013292330e-08,8.407047857872385066e-08,3.294944286346435547e+00,-1.663743890821933746e-02,-1.941178552806377411e-02
3.607000000000000000e+03,1.889999961853027344e+01,1.700000047683715820e+00,2.961195022521678766e-08,8.496623138398717856e-08,3.294973373413085938e+00,-1.661718636751174927e-02,-1.943485625088214874e-02
3.608000000000000000e+03,1.900000000000000000e+01,1.700000047683715820e+00,2.976909208030065201e-08,8.586674482558009913e-08,3.295001268386840820e+00,-1.658703759312629700e-02,-1.945722103118896484e-02
3.609000000000000000e+03,1.910000038146972656e+01,1.700000047683715820e+00,2.992623748809819517e-08,8.677201179807525477e-08,3.295026540756225586e+00,-1.654557511210441589e-02,-1.947797462344169617e-02
3.610000000000000000e+03,1.920000076293945312e+01,1.700000047683715820e+00,3.008337756682522013e-08,8.768203940690000309e-08,3.295048713684082031e+00,-1.649168692529201508e-02,-1.949543878436088562e-02
3.611000000000000000e+03,1.929999923706054688e+01,1.700000047683715820e+00,3.024051764555224509e-08,8.859681344119962887e-08,3.295066833496093750e+00,-1.642479002475738525e-02,-1.950717531144618988e-02
3.612000000000000000e+03,1.939999961853027344e+01,1.700000047683715820e+00,3.039766127699294884e-08,8.951636232268356252e-08,3.295080661773681641e+00,-1.634504646062850952e-02,-1.951197721064090729e-02
3.613000000000000000e+03,1.950000000000000000e+01,1.700000047683715820e+00,3.055480490843365260e-08,9.044067894592444645e-08,3.295089483261108398e+00,-1.625358313322067261e-02,-1.950616575777530670e-02
3.614000000000000000e+03,1.960000038146972656e+01,1.700000047683715820e+00,3.071194498716067756e-08,9.136975620549492305e-08,3.295093774795532227e+00,-1.615259982645511627e-02,-1.948765665292739868e-02
3.615000000000000000e+03,1.970000076293945312e+01,1.700000047683715820e+00,3.086908506588770251e-08,9.230360120682234992e-08,3.295094490051269531e+00,-1.604536734521389008e-02,-1.945430412888526917e-02
3.616000000000000000e+03,1.979999923706054688e+01,1.700000047683715820e+00,3.102621803918736987e-08,9.324219263362465426e-08,3.295092582702636719e+00,-1.593604870140552521e-02,-1.940419711172580719e-02
3.617000000000000000e+03,1.989999961853027344e+01,1.700000047683715820e+00,3.118335456520071602e-08,9.418557311846598168e-08,3.295089483261108398e+00,-1.582934148609638214e-02,-1.933783479034900665e-02
3.618000000000000000e+03,2.000000000000000000e+01,1.700000047683715820e+00,3.134048753850038338e-08,9.513372845049161697e-08,3.295087575912475586e+00,-1.572995260357856750e-02,-1.925444044172763824e-02
3.619000000000000000e+03,0.000000000000000000e+00,1.799999952316284180e+00,1.475222899823439909e-37,4.206037417807018128e-38,3.017367839813232422e+00,9.052103757858276367e-01,2.819634974002838135e-04
3.620000000000000000e+03,1.000000014901161194e-01,1.799999952316284180e+00,1.307526031890660079e-10,3.490976835406923995e-14,2.993935823440551758e+00,8.271034955978393555e-01,-3.370792046189308167e-02
3.621000000000000000e+03,2.000000029802322388e-01,1.799999952316284180e+00,2.636257045995904491e-10,7.374831648143675977e-12,3.019386768341064453e+00,7.635058760643005371e-01,-9.863281622529029846e-03
3.622000000000000000e+03,3.000000119209289551e-01,1.799999952316284180e+00,3.985994589950081490e-10,2.165861066882879271e-11,3.044577598571777344e+00,7.004309892654418945e-01,9.920991025865077972e-03
3.623000000000000000e+03,4.000000059604644775e-01,1.799999952316284180e+00,5.356283194757338606e-10,4.252589946851514924e-11,3.069171190261840820e+00,6.385488510131835938e-01,2.571438997983932495e-02
3.624000000000000000e+03,5.000000000000000000e-01,1.799999952316284180e+00,6.746419534131575801e-10,6.962541654331744212e-11,3.092836380004882812e+00,5.784998536109924316e-01,3.768946975469589233e-02
3.625000000000000000e+03,6.000000238418579102e-01,1.799999952316284180e+00,8.155471298287864101e-10,1.026228060863054736e-10,3.115265607833862305e+00,5.208583474159240723e-01,4.611272364854812622e-02
3.626000000000000000e+03,6.999999880790710449e-01,1.799999952316284180e+00,9.582310500633184347e-10,1.412074762674464523e-10,3.136194467544555664e+00,4.661045372486114502e-01,5.132746696472167969e-02
3.627000000000000000e+03,8.000000119209289551e-01,1.799999952316284180e+00,1.102565927446619298e-09,1.850980896334064596e-10,3.155414342880249023e+00,4.146073162555694580e-01,5.373129993677139282e-02
3.628000000000000000e+03,8.999999761581420898e-01,1.799999952316284180e+00,1.248413261656367013e-09,2.340459770433511721e-10,3.172780275344848633e+00,3.666181564331054688e-01,5.375172942876815796e-02
3.629000000000000000e+03,1.000000000000000000e+00,1.799999952316284180e+00,1.395629056766267695e-09,2.878371985204353223e-10,3.188212633132934570e+00,3.222747147083282471e-01,5.182232707738876343e-02
3.630000000000000000e+03,1.100000023841857910e+00,1.799999952316284180e+00,1.544067651515490525e-09,3.462925779462722176e-10,3.201694011688232422e+00,2.816125154495239258e-01,4.836251214146614075e-02
3.631000000000000000e+03,1.200000047683715820e+00,1.799999952316284180e+00,1.693586160200766244e-09,4.092664540600310374e-10,3.213262081146240234e+00,2.445806264877319336e-01,4.376154392957687378e-02
3.632000000000000000e+03,1.299999952316284180e+00,1.799999952316284180e+00,1.844046915167041334e-09,4.766443351122973127e-10,3.222998380661010742e+00,2.110600322484970093e-01,3.836786374449729919e-02
3.633000000000000000e+03,1.399999976158142090e+00,1.799999952316284180e+00,1.995321019521156813e-09,5.483403175965406717e-10,3.231018781661987305e+00,1.808812320232391357e-01,3.248292952775955200e-02
3.634000000000000000e+03,1.500000000000000000e+00,1.799999952316284180e+00,2.147288125087243316e-09,6.242930616906505747e-10,3.237462282180786133e+00,1.538409590721130371e-01,2.635959722101688385e-02
3.635000000000000000e+03,1.600000023841857910e+00,1.799999952316284180e+00,2.299838985919677725e-09,7.044627658991942099e-10,3.242480754852294922e+00,1.297158896923065186e-01,2.020308561623096466e-02
3.636000000000000000e+03,1.700000047683715820e+00,1.799999952316284180e+00,2.452874792169268403e-09,7.888272812728303052e-10,3.246231079101562500e+00,1.082741096615791321e-01,1.417448557913303375e-02
3.637000000000000000e+03,1.799999952316284180e+00,1.799999952316284180e+00,2.606307170083255187e-09,8.773793358507475659e-10,3.248869657516479492e+00,8.928365260362625122e-02,8.395489305257797241e-03
3.638000000000000000e+03,1.899999976158142090e+00,1.799999952316284180e+00,2.760059070183729091e-09,9.701234260361957240e-10,3.250545740127563477e+00,7.251873612403869629e-02,2.953540300950407982e-03
3.639000000000000000e+03,2.000000000000000000e+00,1.799999952316284180e+00,2.914062546821583055e-09,1.067072874505470281e-09,3.251399517059326172e+00,5.776417627930641174e-02,-2.092464594170451164e-03
3.640000000000000000e+03,2.099999904632568359e+00,1.799999952316284180e+00,3.068258314087302097e-09,1.168248053851073109e-09,3.251560211181640625e+00,4.481795802712440491e-02,-6.707245018333196640e-03
3.641000000000000000e+03,2.200000047683715820e+00,1.799999952316284180e+00,3.222596411944778083e-09,1.273674721247175512e-09,3.251143932342529297e+00,3.349263593554496765e-02,-1.087444275617599487e-02
3.642000000000000000e+03,2.299999952316284180e+00,1.799999952316284180e+00,3.377032875562235859e-09,1.383380965336300505e-09,3.250254869461059570e+00,2.361606992781162262e-02,-1.459209993481636047e-02
3.643000000000000000e+03,2.400000095367431641e+00,1.799999952316284180e+00,3.531531955758282493e-09,1.497398205430044982e-09,3.248983860015869141e+00,1.503107603639364243e-02,-1.786973513662815094e-02
3.644000000000000000e+03,2.500000000000000000e+00,1.799999952316284180e+00,3.686061900154413706e-09,1.615757971862308295e-09,3.247411251068115234e+00,7.595148403197526932e-03,-2.072461508214473724e-02
3.645000000000000000e+03,2.599999904632568359e+00,1.799999952316284180e+00,3.840597617710272971e-09,1.738492461100804576e-09,3.245605707168579102e+00,1.179485698230564594e-03,-2.318002283573150635e-02
3.646000000000000000e+03,2.700000047683715820e+00,1.799999952316284180e+00,3.995118014188392408e-09,1.865634091657852878e-09,3.243626594543457031e+00,-4.331863485276699066e-03,-2.526282891631126404e-02
3.647000000000000000e+03,2.799999952316284180e+00,1.799999952316284180e+00,4.149605548064982941e-09,1.997213061599723005e-09,3.241523742675781250e+00,-9.042983874678611755e-03,-2.700190246105194092e-02
3.648000000000000000e+03,2.900000095367431641e+00,1.799999952316284180e+00,4.304046452574539217e-09,2.133259568992684763e-09,3.239340066909790039e+00,-1.304720342159271240e-02,-2.842740528285503387e-02
3.649000000000000000e+03,3.000000000000000000e+00,1.799999952316284180e+00,4.458429181397605134e-09,2.273801591456958704e-09,3.237110614776611328e+00,-1.642799377441406250e-02,-2.956913970410823822e-02
3.650000000000000000e+03,3.099999904632568359e+00,1.799999952316284180e+00,4.612745296839193543e-09,2.418866218434345683e-09,3.234864950180053711e+00,-1.925998367369174957e-02,-3.045659326016902924e-02
3.651000000000000000e+03,3.200000047683715820e+00,1.799999952316284180e+00,4.766988581650366541e-09,2.568478540965202228e-09,3.232627630233764648e+00,-2.160979993641376495e-02,-3.111796267330646515e-02
3.652000000000000000e+03,3.299999952316284180e+00,1.799999952316284180e+00,4.921154150849815778e-09,2.722661207599230693e-09,3.230418205261230469e+00,-2.353687584400177002e-02,-3.157982230186462402e-02
3.653000000000000000e+03,3.400000095367431641e+00,1.799999952316284180e+00,5.075239339902282154e-09,2.881436644841528505e-09,3.228252649307250977e+00,-2.509420923888683319e-02,-3.186738118529319763e-02
3.654000000000000000e+03,3.500000000000000000e+00,1.799999952316284180e+00,5.229241040183296718e-09,3.044823504438909367e-09,3.226143360137939453e+00,-2.632900327444076538e-02,-3.200363740324974060e-02
3.655000000000000000e+03,3.599999904632568359e+00,1.799999952316284180e+00,5.383159251692859470e-09,3.212840660182791908e-09,3.224100589752197266e+00,-2.728329226374626160e-02,-3.201005980372428894e-02
3.656000000000000000e+03,3.700000047683715820e+00,1.799999952316284180e+00,5.536994418520180261e-09,3.385504765418545503e-09,3.222131490707397461e+00,-2.799447067081928253e-02,-3.190608322620391846e-02
3.657000000000000000e+03,3.799999952316284180e+00,1.799999952316284180e+00,5.690746096576049240e-09,3.562830031000885356e-09,3.220241546630859375e+00,-2.849577367305755615e-02,-3.170918673276901245e-02
3.658000000000000000e+03,3.900000095367431641e+00,1.799999952316284180e+00,5.844416950395725507e-09,3.744831111873736518e-09,3.218434572219848633e+00,-2.881671860814094543e-02,-3.143540397286415100e-02
3.659000000000000000e+03,4.000000000000000000e+00,1.799999952316284180e+00,5.998007424068418914e-09,3.931518666178135391e-09,3.216712474822998047e+00,-2.898348867893218994e-02,-3.109871968626976013e-02
3.660000000000000000e+03,4.099999904632568359e+00,1.799999952316284180e+00,6.151520626218598409e-09,4.122904684322747926e-09,3.215076923370361328e+00,-2.901927754282951355e-02,-3.071187250316143036e-02
3.661000000000000000e+03,4.199999809265136719e+00,1.799999952316284180e+00,6.304959221381523093e-09,4.318998936270190825e-09,3.213527679443359375e+00,-2.894460596144199371e-02,-3.028595261275768280e-02
3.662000000000000000e+03,4.300000190734863281e+00,1.799999952316284180e+00,6.458326318181661918e-09,4.519811191983080789e-09,3.212064266204833984e+00,-2.877759560942649841e-02,-2.983081899583339691e-02
3.663000000000000000e+03,4.400000095367431641e+00,1.799999952316284180e+00,6.611623692975854283e-09,4.725346780531936020e-09,3.210685491561889648e+00,-2.853422239422798157e-02,-2.935474179685115814e-02
3.664000000000000000e+03,4.500000000000000000e+00,1.799999952316284180e+00,6.764854898477778988e-09,4.935613695522533817e-09,3.209389448165893555e+00,-2.822853066027164459e-02,-2.886538393795490265e-02
3.665000000000000000e+03,4.599999904632568359e+00,1.799999952316284180e+00,6.918023043311904985e-09,5.150617710114602232e-09,3.208173751831054688e+00,-2.787283994257450104e-02,-2.836902439594268799e-02
3.666000000000000000e+03,4.699999809265136719e+00,1.799999952316284180e+00,7.071131680191911073e-09,5.370364153378659466e-09,3.207036018371582031e+00,-2.747793123126029968e-02,-2.787110209465026855e-02
3.667000000000000000e+03,4.800000190734863281e+00,1.799999952316284180e+00,7.224183917742266203e-09,5.594859242563643420e-09,3.205973386764526367e+00,-2.705319412052631378e-02,-2.737629599869251251e-02
3.668000000000000000e+03,4.900000095367431641e+00,1.799999952316284180e+00,7.377181976409019626e-09,5.824103865847973793e-09,3.204982757568359375e+00,-2.660679630935192108e-02,-2.688819542527198792e-02
3.669000000000000000e+03,5.000000000000000000e+00,1.799999952316284180e+00,7.530129408905850141e-09,6.058103352302168787e-09,3.204061269760131836e+00,-2.614578604698181152e-02,-2.641025185585021973e-02
3.670000000000000000e+03,5.099999904632568359e+00,1.799999952316284180e+00,7.683030212035646400e-09,6.296859922372277651e-09,3.203205347061157227e+00,-2.567623369395732880e-02,-2.594497241079807281e-02
3.671000000000000000e+03,5.199999809265136719e+00,1.799999952316284180e+00,7.835885718066037953e-09,6.540376240593559487e-09,3.202412128448486328e+00,-2.520332857966423035e-02,-2.549442835152149200e-02
3.672000000000000000e+03,5.300000190734863281e+00,1.799999952316284180e+00,7.988700367889123299e-09,6.788655415590483244e-09,3.201678037643432617e+00,-2.473147958517074585e-02,-2.506032027304172516e-02
3.673000000000000000e+03,5.400000095367431641e+00,1.799999952316284180e+00,8.141475937861741841e-09,7.041697447363048923e-09,3.201000213623046875e+00,-2.426440641283988953e-02,-2.464359998703002930e-02
3.674000000000000000e+03,5.500000000000000000e+00,1.799999952316284180e+00,8.294214204340732977e-09,7.299504112268095923e-09,3.200375318527221680e+00,-2.380520291626453400e-02,-2.424540184438228607e-02
3.675000000000000000e+03,5.599999904632568359e+00,1.799999952316284180e+00,8.446919608218195208e-09,7.562077186662463646e-09,3.199800014495849609e+00,-2.335642650723457336e-02,-2.386620827019214630e-02
3.676000000000000000e+03,5.699999809265136719e+00,1.799999952316284180e+00,8.599593037672548235e-09,7.829417114635361941e-09,3.199271678924560547e+00,-2.292015030980110168e-02,-2.350633032619953156e-02
3.677000000000000000e+03,5.800000190734863281e+00,1.799999952316284180e+00,8.752238045417470858e-09,8.101525672543630208e-09,3.198787212371826172e+00,-2.249802462756633759e-02,-2.316594496369361877e-02
3.678000000000000000e+03,5.900000095367431641e+00,1.799999952316284180e+00,8.904855519631382776e-09,8.378401972208848747e-09,3.198343753814697266e+00,-2.209133654832839966e-02,-2.284469269216060638e-02
3.679000000000000000e+03,6.000000000000000000e+00,1.799999952316284180e+00,9.057448124849543092e-09,8.660046013631017559e-09,3.197938442230224609e+00,-2.170104160904884338e-02,-2.254259213805198669e-02
3.680000000000000000e+03,6.099999904632568359e+00,1.799999952316284180e+00,9.210017637428791204e-09,8.946458684988556342e-09,3.197568893432617188e+00,-2.132781967520713806e-02,-2.225918136537075043e-02
3.681000000000000000e+03,6.199999809265136719e+00,1.799999952316284180e+00,9.362566721904386213e-09,9.237640874459884799e-09,3.197232246398925781e+00,-2.097210288047790527e-02,-2.199397981166839600e-02
3.682000000000000000e+03,6.300000190734863281e+00,1.799999952316284180e+00,9.515096266454747820e-09,9.533592582045002928e-09,3.196926832199096680e+00,-2.063411474227905273e-02,-2.174650877714157104e-02
3.683000000000000000e+03,6.400000095367431641e+00,1.799999952316284180e+00,9.667608047436715424e-09,9.834312031387071329e-09,3.196649551391601562e+00,-2.031390555202960968e-02,-2.151587232947349548e-02
3.684000000000000000e+03,6.500000000000000000e+00,1.799999952316284180e+00,9.820102953028708725e-09,1.013980011066450970e-08,3.196398973464965820e+00,-2.001136541366577148e-02,-2.130165882408618927e-02
3.685000000000000000e+03,6.599999904632568359e+00,1.799999952316284180e+00,9.972583647765986825e-09,1.045005593169889835e-08,3.196172475814819336e+00,-1.972626335918903351e-02,-2.110307104885578156e-02
3.686000000000000000e+03,6.699999809265136719e+00,1.799999952316284180e+00,1.012505013164854972e-08,1.076508038266865697e-08,3.195968627929687500e+00,-1.945825666189193726e-02,-2.091936953365802765e-02
3.687000000000000000e+03,6.800000190734863281e+00,1.799999952316284180e+00,1.027750595739007622e-08,1.108487435175220526e-08,3.195785284042358398e+00,-1.920691877603530884e-02,-2.074988931417465210e-02
3.688000000000000000e+03,6.900000095367431641e+00,1.799999952316284180e+00,1.042994846045530721e-08,1.140943428623586442e-08,3.195621013641357422e+00,-1.897175237536430359e-02,-2.059360966086387634e-02
3.689000000000000000e+03,7.000000000000000000e+00,1.799999952316284180e+00,1.058238208173634121e-08,1.173876018611963445e-08,3.195473909378051758e+00,-1.875220425426959991e-02,-2.045004442334175110e-02
3.690000000000000000e+03,7.099999904632568359e+00,1.799999952316284180e+00,1.073480593305475850e-08,1.207285382776035476e-08,3.195342779159545898e+00,-1.854767650365829468e-02,-2.031836472451686859e-02
3.691000000000000000e+03,7.199999809265136719e+00,1.799999952316284180e+00,1.088722179076739849e-08,1.241171432297960564e-08,3.195226430892944336e+00,-1.835754141211509705e-02,-2.019784227013587952e-02
3.692000000000000000e+03,7.300000190734863281e+00,1.799999952316284180e+00,1.103963054305268088e-08,1.275534167177738709e-08,3.195122957229614258e+00,-1.818114891648292542e-02,-2.008784934878349304e-02
3.693000000000000000e+03,7.400000095367431641e+00,1.799999952316284180e+00,1.119203218991060567e-08,1.310373320961844001e-08,3.195031642913818359e+00,-1.801784150302410126e-02,-1.998743042349815369e-02
3.694000000000000000e+03,7.500000000000000000e+00,1.799999952316284180e+00,1.134442761951959255e-08,1.345688982468118411e-08,3.194951295852661133e+00,-1.786694675683975220e-02,-1.989618875086307526e-02
3.695000000000000000e+03,7.599999904632568359e+00,1.799999952316284180e+00,1.149681860823648094e-08,1.381481151696561938e-08,3.194880962371826172e+00,-1.772779971361160278e-02,-1.981339789927005768e-02
3.696000000000000000e+03,7.699999809265136719e+00,1.799999952316284180e+00,1.164920426788285113e-08,1.417749739829332611e-08,3.194819450378417969e+00,-1.759973913431167603e-02,-1.973844505846500397e-02
3.697000000000000000e+03,7.800000190734863281e+00,1.799999952316284180e+00,1.180158548663712281e-08,1.454494924502114372e-08,3.194766044616699219e+00,-1.748211495578289032e-02,-1.967083476483821869e-02
3.698000000000000000e+03,7.900000095367431641e+00,1.799999952316284180e+00,1.195396315267771570e-08,1.491716439261381311e-08,3.194719791412353516e+00,-1.737429015338420868e-02,-1.960974372923374176e-02
3.699000000000000000e+03,8.000000000000000000e+00,1.799999952316284180e+00,1.210633815418304948e-08,1.529414106471449486e-08,3.194680213928222656e+00,-1.727564632892608643e-02,-1.955491676926612854e-02
3.700000000000000000e+03,8.100000381469726562e+00,1.799999952316284180e+00,1.225870960297470447e-08,1.567588370221528749e-08,3.194646358489990234e+00,-1.718558371067047119e-02,-1.950586214661598206e-02
3.701000000000000000e+03,8.199999809265136719e+00,1.799999952316284180e+00,1.241107838723110035e-08,1.606238519968883338e-08,3.194617748260498047e+00,-1.710352674126625061e-02,-1.946174353361129761e-02
3.702000000000000000e+03,8.300000190734863281e+00,1.799999952316284180e+00,1.256344539513065683e-08,1.645365443891932955e-08,3.194593906402587891e+00,-1.702891662716865540e-02,-1.942276582121849060e-02
3.703000000000000000e+03,8.399999618530273438e+00,1.799999952316284180e+00,1.271580973849495422e-08,1.684968076176573959e-08,3.194574117660522461e+00,-1.696122623980045319e-02,-1.938778534531593323e-02
3.704000000000000000e+03,8.500000000000000000e+00,1.799999952316284180e+00,1.286817319368083190e-08,1.725047305001226050e-08,3.194557905197143555e+00,-1.689994521439075470e-02,-1.935715042054653168e-02
3.705000000000000000e+03,8.600000381469726562e+00,1.799999952316284180e+00,1.302053576068828988e-08,1.765602775094521348e-08,3.194544792175292969e+00,-1.684459485113620758e-02,-1.932995207607746124e-02
3.706000000000000000e+03,8.699999809265136719e+00,1.799999952316284180e+00,1.317289566316048877e-08,1.806633953549408034e-08,3.194534778594970703e+00,-1.679471880197525024e-02,-1.930586248636245728e-02
3.707000000000000000e+03,8.800000190734863281e+00,1.799999952316284180e+00,1.332525556563268765e-08,1.848141728544305806e-08,3.194527149200439453e+00,-1.674988493323326111e-02,-1.928511634469032288e-02
3.708000000000000000e+03,8.899999618530273438e+00,1.799999952316284180e+00,1.347761369174804713e-08,1.890125211900794966e-08,3.194521665573120117e+00,-1.670968718826770782e-02,-1.926669850945472717e-02
3.709000000000000000e+03,9.000000000000000000e+00,1.799999952316284180e+00,1.362997181786340661e-08,1.932585291797295213e-08,3.194518089294433594e+00,-1.667374372482299805e-02,-1.925107464194297791e-02
3.710000000000000000e+03,9.100000381469726562e+00,1.799999952316284180e+00,1.378232994397876610e-08,1.975521257691070787e-08,3.194515943527221680e+00,-1.664169691503047943e-02,-1.923745498061180115e-02
3.711000000000000000e+03,9.199999809265136719e+00,1.799999952316284180e+00,1.393468629373728618e-08,2.018933109582121688e-08,3.194515466690063477e+00,-1.661320962011814117e-02,-1.922561228275299072e-02
3.712000000000000000e+03,9.300000190734863281e+00,1.799999952316284180e+00,1.408704353167422596e-08,2.062821202741815796e-08,3.194515943527221680e+00,-1.658796891570091248e-02,-1.921589113771915436e-02
3.713000000000000000e+03,9.399999618530273438e+00,1.799999952316284180e+00,1.423939988143274604e-08,2.107185004263101291e-08,3.194517374038696289e+00,-1.656568422913551331e-02,-1.920736953616142273e-02
3.714000000000000000e+03,9.500000000000000000e+00,1.799999952316284180e+00,1.439175623119126612e-08,2.152025402324397874e-08,3.194519758224487305e+00,-1.654608175158500671e-02,-1.920060627162456512e-02
3.715000000000000000e+03,9.600000381469726562e+00,1.799999952316284180e+00,1.454411346912820591e-08,2.197341686382969783e-08,3.194522619247436523e+00,-1.652891188859939575e-02,-1.919489540159702301e-02
3.716000000000000000e+03,9.699999809265136719e+00,1.799999952316284180e+00,1.469646893070830629e-08,2.243133501167449140e-08,3.194526195526123047e+00,-1.651394180953502655e-02,-1.919009536504745483e-02
3.717000000000000000e+03,9.800000190734863281e+00,1.799999952316284180e+00,1.484882528046682637e-08,2.289401734856255644e-08,3.194530248641967773e+00,-1.650095358490943909e-02,-1.918661966919898987e-02
3.718000000000000000e+03,9.899999618530273438e+00,1.799999952316284180e+00,1.500118074204692675e-08,2.336145676906653534e-08,3.194534540176391602e+00,-1.648974977433681488e-02,-1.918362267315387726e-02
3.719000000000000000e+03,1.000000000000000000e+01,1.799999952316284180e+00,1.515353709180544683e-08,2.383365860225694632e-08,3.194539070129394531e+00,-1.648014970123767853e-02,-1.918172650039196014e-02
3.720000000000000000e+03,1.010000038146972656e+01,1.799999952316284180e+00,1.530589521792080632e-08,2.431062107177694998e-08,3.194543600082397461e+00,-1.647198386490345001e-02,-1.918029040098190308e-02
3.721000000000000000e+03,1.019999980926513672e+01,1.799999952316284180e+00,1.545824979132248700e-08,2.479233707219918870e-08,3.194548606872558594e+00,-1.646509766578674316e-02,-1.917921192944049835e-02
3.722000000000000000e+03,1.030000019073486328e+01,1.799999952316284180e+00,1.561060791743784648e-08,2.527881903802153829e-08,3.194553375244140625e+00,-1.645935140550136566e-02,-1.917899027466773987e-02
3.723000000000000000e+03,1.039999961853027344e+01,1.799999952316284180e+00,1.576296426719636656e-08,2.577005453474612295e-08,3.194558143615722656e+00,-1.645461656153202057e-02,-1.917878910899162292e-02
3.724000000000000000e+03,1.050000000000000000e+01,1.799999952316284180e+00,1.591532061695488665e-08,2.626605599687081849e-08,3.194562911987304688e+00,-1.645077578723430634e-02,-1.917931251227855682e-02
3.725000000000000000e+03,1.060000038146972656e+01,1.799999952316284180e+00,1.606767874307024613e-08,2.676681631896826730e-08,3.194567680358886719e+00,-1.644772104918956757e-02,-1.917992904782295227e-02
3.726000000000000000e+03,1.069999980926513672e+01,1.799999952316284180e+00,1.622003509282876621e-08,2.727233017196795117e-08,3.194572448730468750e+00,-1.644535921514034271e-02,-1.918059028685092926e-02
3.727000000000000000e+03,1.080000019073486328e+01,1.799999952316284180e+00,1.637239321894412569e-08,2.778260821401090652e-08,3.194576740264892578e+00,-1.644360087811946869e-02,-1.918182708323001862e-02
3.728000000000000000e+03,1.089999961853027344e+01,1.799999952316284180e+00,1.652475134505948517e-08,2.829764156331293634e-08,3.194581270217895508e+00,-1.644236780703067780e-02,-1.918283477425575256e-02
3.729000000000000000e+03,1.100000000000000000e+01,1.799999952316284180e+00,1.667710947117484466e-08,2.881743732530139823e-08,3.194585323333740234e+00,-1.644158922135829926e-02,-1.918434537947177887e-02
3.730000000000000000e+03,1.110000038146972656e+01,1.799999952316284180e+00,1.682946759729020414e-08,2.934199372361945279e-08,3.194589376449584961e+00,-1.644119992852210999e-02,-1.918575353920459747e-02
3.731000000000000000e+03,1.119999980926513672e+01,1.799999952316284180e+00,1.698182572340556362e-08,2.987130542919658183e-08,3.194593191146850586e+00,-1.644114404916763306e-02,-1.918703503906726837e-02
3.732000000000000000e+03,1.130000019073486328e+01,1.799999952316284180e+00,1.713418562587776250e-08,3.040538132381698233e-08,3.194597005844116211e+00,-1.644136942923069000e-02,-1.918874308466911316e-02
3.733000000000000000e+03,1.139999961853027344e+01,1.799999952316284180e+00,1.728654197563628259e-08,3.094420719662593910e-08,3.194600343704223633e+00,-1.644182950258255005e-02,-1.919008791446685791e-02
3.734000000000000000e+03,1.150000000000000000e+01,1.799999952316284180e+00,1.743890187810848147e-08,3.148780081119184615e-08,3.194603681564331055e+00,-1.644248701632022858e-02,-1.919182389974594116e-02
3.735000000000000000e+03,1.160000038146972656e+01,1.799999952316284180e+00,1.759126178058068035e-08,3.203615506208734587e-08,3.194606781005859375e+00,-1.644330471754074097e-02,-1.919336058199405670e-02
3.736000000000000000e+03,1.169999980926513672e+01,1.799999952316284180e+00,1.774361990669603983e-08,3.258925929117140186e-08,3.194609642028808594e+00,-1.644424907863140106e-02,-1.919468492269515991e-02
3.737000000000000000e+03,1.180000019073486328e+01,1.799999952316284180e+00,1.789597980916823872e-08,3.314713126201240811e-08,3.194612503051757812e+00,-1.644529402256011963e-02,-1.919636316597461700e-02
3.738000000000000000e+03,1.189999961853027344e+01,1.799999952316284180e+00,1.804833793528359820e-08,3.370975321104197064e-08,3.194615125656127930e+00,-1.644641533493995667e-02,-1.919762231409549713e-02
3.739000000000000000e+03,1.200000000000000000e+01,1.799999952316284180e+00,1.820069961411263648e-08,3.427714290182848345e-08,3.194617509841918945e+00,-1.644759066402912140e-02,-1.919922046363353729e-02
3.740000000000000000e+03,1.210000038146972656e+01,1.799999952316284180e+00,1.835305951658483536e-08,3.484928967623091012e-08,3.194619655609130859e+00,-1.644880138337612152e-02,-1.920057833194732666e-02
3.741000000000000000e+03,1.219999980926513672e+01,1.799999952316284180e+00,1.850541764270019485e-08,3.542618998153557186e-08,3.194621801376342773e+00,-1.645003445446491241e-02,-1.920169033110141754e-02
3.742000000000000000e+03,1.230000019073486328e+01,1.799999952316284180e+00,1.865777932152923313e-08,3.600785802859718387e-08,3.194623708724975586e+00,-1.645127311348915100e-02,-1.920313201844692230e-02
3.743000000000000000e+03,1.239999961853027344e+01,1.799999952316284180e+00,1.881013744764459261e-08,3.659427605384735216e-08,3.194625377655029297e+00,-1.645250804722309113e-02,-1.920413039624691010e-02
3.744000000000000000e+03,1.250000000000000000e+01,1.799999952316284180e+00,1.896249912647363089e-08,3.718546182085447072e-08,3.194627046585083008e+00,-1.645372807979583740e-02,-1.920545659959316254e-02
3.745000000000000000e+03,1.260000038146972656e+01,1.799999952316284180e+00,1.911485902894582978e-08,3.778140467147750314e-08,3.194628715515136719e+00,-1.645492576062679291e-02,-1.920653134584426880e-02
3.746000000000000000e+03,1.269999980926513672e+01,1.799999952316284180e+00,1.926721893141802866e-08,3.838210105300277064e-08,3.194630146026611328e+00,-1.645609550178050995e-02,-1.920735277235507965e-02
3.747000000000000000e+03,1.280000019073486328e+01,1.799999952316284180e+00,1.941958061024706694e-08,3.898756162357130961e-08,3.194631338119506836e+00,-1.645722985267639160e-02,-1.920850202441215515e-02
3.748000000000000000e+03,1.289999961853027344e+01,1.799999952316284180e+00,1.957193873636242643e-08,3.959777572504208365e-08,3.194632530212402344e+00,-1.645832695066928864e-02,-1.920920796692371368e-02
3.749000000000000000e+03,1.300000000000000000e+01,1.799999952316284180e+00,1.972430041519146471e-08,4.021275401555612916e-08,3.194633722305297852e+00,-1.645938307046890259e-02,-1.921024359762668610e-02
3.750000000000000000e+03,1.310000038146972656e+01,1.799999952316284180e+00,1.987666209402050299e-08,4.083249294239976734e-08,3.194634675979614258e+00,-1.646039448678493500e-02,-1.921103149652481079e-02
3.751000000000000000e+03,1.319999980926513672e+01,1.799999952316284180e+00,2.002902199649270187e-08,4.145698540014564060e-08,3.194635629653930664e+00,-1.646136119961738586e-02,-1.921157352626323700e-02
3.752000000000000000e+03,1.330000019073486328e+01,1.799999952316284180e+00,2.018138367532174016e-08,4.208624204693478532e-08,3.194636344909667969e+00,-1.646228134632110596e-02,-1.921245083212852478e-02
3.753000000000000000e+03,1.339999961853027344e+01,1.799999952316284180e+00,2.033374180143709964e-08,4.272025222462616512e-08,3.194637060165405273e+00,-1.646315865218639374e-02,-1.921289414167404175e-02
3.754000000000000000e+03,1.350000000000000000e+01,1.799999952316284180e+00,2.048610348026613792e-08,4.335902659136081638e-08,3.194637775421142578e+00,-1.646398752927780151e-02,-1.921367458999156952e-02
3.755000000000000000e+03,1.360000038146972656e+01,1.799999952316284180e+00,2.063846515909517620e-08,4.400256159442506032e-08,3.194638252258300781e+00,-1.646477356553077698e-02,-1.921421848237514496e-02
3.756000000000000000e+03,1.369999980926513672e+01,1.799999952316284180e+00,2.079082506156737509e-08,4.465084657567786053e-08,3.194638967514038086e+00,-1.646551676094532013e-02,-1.921452954411506653e-02
3.757000000000000000e+03,1.380000019073486328e+01,1.799999952316284180e+00,2.094318674039641337e-08,4.530389929868761101e-08,3.194639444351196289e+00,-1.646622084081172943e-02,-1.921518519520759583e-02
3.758000000000000000e+03,1.389999961853027344e+01,1.799999952316284180e+00,2.109554664286861225e-08,4.596170199988591776e-08,3.194639921188354492e+00,-1.646688394248485565e-02,-1.921541988849639893e-02
3.759000000000000000e+03,1.400000000000000000e+01,1.799999952316284180e+00,2.124790832169765054e-08,4.662427244284117478e-08,3.194640159606933594e+00,-1.646751165390014648e-02,-1.921600289642810822e-02
3.760000000000000000e+03,1.410000038146972656e+01,1.799999952316284180e+00,2.140027000052668882e-08,4.729160352212602447e-08,3.194640636444091797e+00,-1.646810770034790039e-02,-1.921636238694190979e-02
3.761000000000000000e+03,1.419999980926513672e+01,1.799999952316284180e+00,2.155262990299888770e-08,4.796368457959943044e-08,3.194640874862670898e+00,-1.646867394447326660e-02,-1.921650208532810211e-02
3.762000000000000000e+03,1.430000019073486328e+01,1.799999952316284180e+00,2.170499158182792598e-08,4.864053337882978667e-08,3.194641113281250000e+00,-1.646921597421169281e-02,-1.921699941158294678e-02
3.763000000000000000e+03,1.439999961853027344e+01,1.799999952316284180e+00,2.185735148430012487e-08,4.932213215624869918e-08,3.194641351699829102e+00,-1.646973751485347748e-02,-1.921708695590496063e-02
3.764000000000000000e+03,1.450000000000000000e+01,1.799999952316284180e+00,2.200971316312916315e-08,5.000849867542456195e-08,3.194641590118408203e+00,-1.647024229168891907e-02,-1.921753957867622375e-02
3.765000000000000000e+03,1.460000038146972656e+01,1.799999952316284180e+00,2.216207484195820143e-08,5.069962227821633860e-08,3.194641828536987305e+00,-1.647073775529861450e-02,-1.921777985990047455e-02
3.766000000000000000e+03,1.469999980926513672e+01,1.799999952316284180e+00,2.231443652078723971e-08,5.139549941191035032e-08,3.194642066955566406e+00,-1.647122949361801147e-02,-1.921781525015830994e-02
3.767000000000000000e+03,1.480000019073486328e+01,1.799999952316284180e+00,2.246679819961627800e-08,5.209614073464763351e-08,3.194642066955566406e+00,-1.647172309458255768e-02,-1.921822316944599152e-02
3.768000000000000000e+03,1.489999961853027344e+01,1.799999952316284180e+00,2.261915810208847688e-08,5.280153558828715177e-08,3.194642305374145508e+00,-1.647222787141799927e-02,-1.921823807060718536e-02
3.769000000000000000e+03,1.500000000000000000e+01,1.799999952316284180e+00,2.277151978091751516e-08,5.351169818368362030e-08,3.194642543792724609e+00,-1.647275313735008240e-02,-1.921863481402397156e-02
3.770000000000000000e+03,1.510000038146972656e+01,1.799999952316284180e+00,2.292388145974655345e-08,5.422661786269600270e-08,3.194642782211303711e+00,-1.647330448031425476e-02,-1.921883784234523773e-02
3.771000000000000000e+03,1.519999980926513672e+01,1.799999952316284180e+00,2.307624136221875233e-08,5.494629107261062018e-08,3.194643020629882812e+00,-1.647389680147171021e-02,-1.921885646879673004e-02
3.772000000000000000e+03,1.530000019073486328e+01,1.799999952316284180e+00,2.322860304104779061e-08,5.567072847156850912e-08,3.194643259048461914e+00,-1.647454127669334412e-02,-1.921926811337471008e-02
3.773000000000000000e+03,1.539999961853027344e+01,1.799999952316284180e+00,2.338096294351998949e-08,5.639991940142863314e-08,3.194643497467041016e+00,-1.647525094449520111e-02,-1.921931467950344086e-02
3.774000000000000000e+03,1.550000000000000000e+01,1.799999952316284180e+00,2.353332639870586718e-08,5.713387452033202862e-08,3.194643974304199219e+00,-1.647604070603847504e-02,-1.921976916491985321e-02
3.775000000000000000e+03,1.560000038146972656e+01,1.799999952316284180e+00,2.368568807753490546e-08,5.787259027556501678e-08,3.194644212722778320e+00,-1.647692732512950897e-02,-1.922006160020828247e-02
3.776000000000000000e+03,1.569999980926513672e+01,1.799999952316284180e+00,2.383804798000710434e-08,5.861605600898656121e-08,3.194644927978515625e+00,-1.647792942821979523e-02,-1.922020502388477325e-02
3.777000000000000000e+03,1.580000019073486328e+01,1.799999952316284180e+00,2.399040965883614263e-08,5.936428948416505591e-08,3.194645404815673828e+00,-1.647907122969627380e-02,-1.922078430652618408e-02
3.778000000000000000e+03,1.589999961853027344e+01,1.799999952316284180e+00,2.414277133766518091e-08,6.011727293753210688e-08,3.194646120071411133e+00,-1.648037321865558624e-02,-1.922104135155677795e-02
3.779000000000000000e+03,1.600000000000000000e+01,1.799999952316284180e+00,2.429513301649421919e-08,6.087502413265610812e-08,3.194647073745727539e+00,-1.648186147212982178e-02,-1.922176033258438110e-02
3.780000000000000000e+03,1.610000038146972656e+01,1.799999952316284180e+00,2.444749469532325747e-08,6.163753596410970204e-08,3.194648027420043945e+00,-1.648356579244136810e-02,-1.922238059341907501e-02
3.781000000000000000e+03,1.620000076293945312e+01,1.799999952316284180e+00,2.459985637415229576e-08,6.240480843189288862e-08,3.194649457931518555e+00,-1.648551784455776215e-02,-1.922311075031757355e-02
3.782000000000000000e+03,1.629999923706054688e+01,1.799999952316284180e+00,2.475221627662449464e-08,6.317682021972359507e-08,3.194650888442993164e+00,-1.648775115609169006e-02,-1.922358945012092590e-02
3.783000000000000000e+03,1.639999961853027344e+01,1.799999952316284180e+00,2.490457973181037232e-08,6.395360685473860940e-08,3.194652795791625977e+00,-1.649030297994613647e-02,-1.922499202191829681e-02
3.784000000000000000e+03,1.650000000000000000e+01,1.799999952316284180e+00,2.505694141063941061e-08,6.473515412608321640e-08,3.194654941558837891e+00,-1.649321056902408600e-02,-1.922619342803955078e-02
3.785000000000000000e+03,1.660000038146972656e+01,1.799999952316284180e+00,2.520930486582528829e-08,6.552146203375741607e-08,3.194657564163208008e+00,-1.649651862680912018e-02,-1.922761090099811554e-02
3.786000000000000000e+03,1.670000076293945312e+01,1.799999952316284180e+00,2.536166654465432657e-08,6.631252347233385080e-08,3.194660425186157227e+00,-1.650026813149452209e-02,-1.922927610576152802e-02
3.787000000000000000e+03,1.679999923706054688e+01,1.799999952316284180e+00,2.551402822348336485e-08,6.710833133638516301e-08,3.194664001464843750e+00,-1.650450378656387329e-02,-1.923084817826747894e-02
3.788000000000000000e+03,1.689999961853027344e+01,1.799999952316284180e+00,2.566639167866924254e-08,6.790891404762078309e-08,3.194668292999267578e+00,-1.650926843285560608e-02,-1.923352479934692383e-02
3.789000000000000000e+03,1.700000000000000000e+01,1.799999952316284180e+00,2.581875513385512022e-08,6.871425739518599585e-08,3.194673061370849609e+00,-1.651460491120815277e-02,-1.923620700836181641e-02
3.790000000000000000e+03,1.710000038146972656e+01,1.799999952316284180e+00,2.597111858904099790e-08,6.952435427365344367e-08,3.194678783416748047e+00,-1.652054861187934875e-02,-1.923933811485767365e-02
3.791000000000000000e+03,1.720000076293945312e+01,1.799999952316284180e+00,2.612348382058371499e-08,7.033921889387784177e-08,3.194685220718383789e+00,-1.652713306248188019e-02,-1.924298331141471863e-02
3.792000000000000000e+03,1.729999923706054688e+01,1.799999952316284180e+00,2.627584549941275327e-08,7.115881572872240213e-08,3.194692611694335938e+00,-1.653437502682209015e-02,-1.924683339893817902e-02
3.793000000000000000e+03,1.739999961853027344e+01,1.799999952316284180e+00,2.642821073095547035e-08,7.198319451617862796e-08,3.194701194763183594e+00,-1.654228381812572479e-02,-1.925212331116199493e-02
3.794000000000000000e+03,1.750000000000000000e+01,1.799999952316284180e+00,2.658057773885502684e-08,7.281232683453708887e-08,3.194710969924926758e+00,-1.655083894729614258e-02,-1.925779320299625397e-02
3.795000000000000000e+03,1.760000038146972656e+01,1.799999952316284180e+00,2.673294474675458332e-08,7.364621978922514245e-08,3.194722175598144531e+00,-1.655999757349491119e-02,-1.926432549953460693e-02
3.796000000000000000e+03,1.770000076293945312e+01,1.799999952316284180e+00,2.688531175465413980e-08,7.448487338024278870e-08,3.194734573364257812e+00,-1.656968332827091217e-02,-1.927182637155056000e-02
3.797000000000000000e+03,1.779999923706054688e+01,1.799999952316284180e+00,2.703767698619685689e-08,7.532826629130795482e-08,3.194748640060424805e+00,-1.657976396381855011e-02,-1.928002573549747467e-02
3.798000000000000000e+03,1.789999961853027344e+01,1.799999952316284180e+00,2.719004577045325277e-08,7.617643404955742881e-08,3.194764137268066406e+00,-1.659005694091320038e-02,-1.929019205272197723e-02
3.799000000000000000e+03,1.800000000000000000e+01,1.799999952316284180e+00,2.734241633106648806e-08,7.702936244413649547e-08,3.194781303405761719e+00,-1.660030335187911987e-02,-1.930128596723079681e-02
3.800000000000000000e+03,1.810000038146972656e+01,1.799999952316284180e+00,2.749478689167972334e-08,7.788705147504515480e-08,3.194800138473510742e+00,-1.661015860736370087e-02,-1.931379921734333038e-02
3.801000000000000000e+03,1.820000076293945312e+01,1.799999952316284180e+00,2.764715922864979802e-08,7.874949403685604921e-08,3.194820642471313477e+00,-1.661917567253112793e-02,-1.932782121002674103e-02
3.802000000000000000e+03,1.829999923706054688e+01,1.799999952316284180e+00,2.779952978926303331e-08,7.961667591871446348e-08,3.194842576980590820e+00,-1.662678830325603485e-02,-1.934302039444446564e-02
3.803000000000000000e+03,1.839999961853027344e+01,1.799999952316284180e+00,2.795190567894678679e-08,8.048863975318454322e-08,3.194865942001342773e+00,-1.663230173289775848e-02,-1.936055533587932587e-02
3.804000000000000000e+03,1.850000000000000000e+01,1.799999952316284180e+00,2.810428156863054028e-08,8.136535711855685804e-08,3.194890499114990234e+00,-1.663488149642944336e-02,-1.937920600175857544e-02
3.805000000000000000e+03,1.860000038146972656e+01,1.799999952316284180e+00,2.825665745831429376e-08,8.224683512025876553e-08,3.194915771484375000e+00,-1.663355343043804169e-02,-1.939917542040348053e-02
3.806000000000000000e+03,1.870000076293945312e+01,1.799999952316284180e+00,2.840903690071172605e-08,8.313307375829026569e-08,3.194941282272338867e+00,-1.662721484899520874e-02,-1.942015066742897034e-02
3.807000000000000000e+03,1.879999923706054688e+01,1.799999952316284180e+00,2.856141279039547953e-08,8.402404461094192811e-08,3.194966793060302734e+00,-1.661467179656028748e-02,-1.944124139845371246e-02
3.808000000000000000e+03,1.889999961853027344e+01,1.799999952316284180e+00,2.871379223279291182e-08,8.491979741620525601e-08,3.194991350173950195e+00,-1.659468747675418854e-02,-1.946287602186203003e-02
3.809000000000000000e+03,1.900000000000000000e+01,1.799999952316284180e+00,2.886617345154718350e-08,8.582031085779817658e-08,3.195014476776123047e+00,-1.656607538461685181e-02,-1.948290877044200897e-02
3.810000000000000000e+03,1.910000038146972656e+01,1.799999952316284180e+00,2.901855467030145519e-08,8.672558493572068983e-08,3.195035219192504883e+00,-1.652780361473560333e-02,-1.950044743716716766e-02
3.811000000000000000e+03,1.920000076293945312e+01,1.799999952316284180e+00,2.917093588905572688e-08,8.763561254454543814e-08,3.195053339004516602e+00,-1.647914387285709381e-02,-1.951391622424125671e-02
3.812000000000000000e+03,1.929999923706054688e+01,1.799999952316284180e+00,2.932331355509631976e-08,8.855038657884506392e-08,3.195067882537841797e+00,-1.641983352601528168e-02,-1.952109672129154205e-02
3.813000000000000000e+03,1.939999961853027344e+01,1.799999952316284180e+00,2.947569477385059145e-08,8.946994256575635518e-08,3.195078611373901367e+00,-1.635022461414337158e-02,-1.952112652361392975e-02
3.814000000000000000e+03,1.950000000000000000e+01,1.799999952316284180e+00,2.962807599260486313e-08,9.039425918899723911e-08,3.195085525512695312e+00,-1.627141423523426056e-02,-1.951077207922935486e-02
3.815000000000000000e+03,1.960000038146972656e+01,1.799999952316284180e+00,2.978045365864545602e-08,9.132334355399507331e-08,3.195088863372802734e+00,-1.618530787527561188e-02,-1.948845572769641876e-02
3.816000000000000000e+03,1.970000076293945312e+01,1.799999952316284180e+00,2.993283132468604890e-08,9.225718855532250018e-08,3.195089340209960938e+00,-1.609457470476627350e-02,-1.945253275334835052e-02
3.817000000000000000e+03,1.979999923706054688e+01,1.799999952316284180e+00,3.008520366165612359e-08,9.319578708755216212e-08,3.195087909698486328e+00,-1.600250415503978729e-02,-1.940149441361427307e-02
3.818000000000000000e+03,1.989999961853027344e+01,1.799999952316284180e+00,3.023757955133987707e-08,9.413917467782084714e-08,3.195085525512695312e+00,-1.591273397207260132e-02,-1.933608204126358032e-02
3.819000000000000000e+03,2.000000000000000000e+01,1.799999952316284180e+00,3.038995188830995176e-08,9.508733000984648243e-08,3.195084095001220703e+00,-1.582890748977661133e-02,-1.925553008913993835e-02
3.820000000000000000e+03,0.000000000000000000e+00,1.899999976158142090e+00,1.415019194160345658e-37,3.944330636350022427e-38,2.920855522155761719e+00,8.762567043304443359e-01,-2.532121911644935608e-02
3.821000000000000000e+03,1.000000014901161194e-01,1.899999976158142090e+00,1.265704069330908510e-10,-3.135008095137004069e-12,2.898910045623779297e+00,8.031047582626342773e-01,-5.910048633813858032e-02
3.822000000000000000e+03,2.000000029802322388e-01,1.899999976158142090e+00,2.551286404361974292e-10,1.029730012196139466e-12,2.922800540924072266e+00,7.435930967330932617e-01,-3.499190881848335266e-02
3.823000000000000000e+03,3.000000119209289551e-01,1.899999976158142090e+00,3.856574226634990055e-10,1.216344820004211513e-11,2.946466922760009766e+00,6.845417022705078125e-01,-1.460549794137477875e-02
3.824000000000000000e+03,4.000000059604644775e-01,1.899999976158142090e+00,5.181177709090434291e-10,2.993677528095872731e-11,2.969621419906616211e+00,6.265149116516113281e-01,2.122257603332400322e-03
3.825000000000000000e+03,5.000000000000000000e-01,1.899999976158142090e+00,6.524493167958667073e-10,5.402835817625017967e-11,2.991979837417602539e+00,5.700559020042419434e-01,1.533770002424716949e-02
3.826000000000000000e+03,6.000000238418579102e-01,1.899999976158142090e+00,7.885721520217714442e-10,8.413118812722331086e-11,3.013276815414428711e+00,5.156590938568115234e-01,2.526345476508140564e-02
3.827000000000000000e+03,6.999999880790710449e-01,1.899999976158142090e+00,9.263889655386492450e-10,1.199581545208161515e-10,3.033278465270996094e+00,4.637479186058044434e-01,3.218595683574676514e-02
3.828000000000000000e+03,8.000000119209289551e-01,1.899999976158142090e+00,1.065788901577491288e-09,1.612467104283865638e-10,3.051794528961181641e+00,4.146596193313598633e-01,3.643874451518058777e-02
3.829000000000000000e+03,8.999999761581420898e-01,1.899999976158142090e+00,1.206650446228252349e-09,2.077618216356214020e-10,3.068685531616210938e+00,3.686388134956359863e-01,3.838398307561874390e-02
3.830000000000000000e+03,1.000000000000000000e+00,1.899999976158142090e+00,1.348846256910007924e-09,2.592980830051772045e-10,3.083863973617553711e+00,3.258374333381652832e-01,3.839380666613578796e-02
3.831000000000000000e+03,1.100000023841857910e+00,1.899999976158142090e+00,1.492246215484271943e-09,3.156798711323460793e-10,3.097294330596923828e+00,2.863217890262603760e-01,3.683390840888023376e-02
3.832000000000000000e+03,1.200000047683715820e+00,1.899999976158142090e+00,1.636720647901768189e-09,3.767610390337239323e-10,3.108988046646118164e+00,2.500829398632049561e-01,3.404985740780830383e-02
3.833000000000000000e+03,1.299999952316284180e+00,1.899999976158142090e+00,1.782143543849201706e-09,4.424229316235539500e-10,3.118996858596801758e+00,2.170498669147491455e-01,3.035729937255382538e-02
3.834000000000000000e+03,1.399999976158142090e+00,1.899999976158142090e+00,1.928394555150703127e-09,5.125727620125530848e-10,3.127403736114501953e+00,1.871030330657958984e-01,2.603550627827644348e-02
3.835000000000000000e+03,1.500000000000000000e+00,1.899999976158142090e+00,2.075360772124668074e-09,5.871403363499894112e-10,3.134315729141235352e+00,1.600877493619918823e-01,2.132465690374374390e-02
3.836000000000000000e+03,1.600000023841857910e+00,1.899999976158142090e+00,2.222937389717571932e-09,6.660755280663011035e-10,3.139855384826660156e+00,1.358256936073303223e-01,1.642524451017379761e-02
3.837000000000000000e+03,1.700000047683715820e+00,1.899999976158142090e+00,2.371028706704692013e-09,7.493453080265055632e-10,3.144153833389282227e+00,1.141250357031822205e-01,1.149991340935230255e-02
3.838000000000000000e+03,1.799999952316284180e+00,1.899999976158142090e+00,2.519547903645502629e-09,8.369309689726378565e-10,3.147345066070556641e+00,9.478840976953506470e-02,6.676511373370885849e-03
3.839000000000000000e+03,1.899999976158142090e+00,1.899999976158142090e+00,2.668418375151304645e-09,9.288257940553990011e-10,3.149560928344726562e+00,7.761904597282409668e-02,2.051792573183774948e-03
3.840000000000000000e+03,2.000000000000000000e+00,1.899999976158142090e+00,2.817570621260756525e-09,1.025032281276594404e-09,3.150928020477294922e+00,6.242546439170837402e-02,-2.304121153429150581e-03
3.841000000000000000e+03,2.099999904632568359e+00,1.899999976158142090e+00,2.966944689930528511e-09,1.125560200598840765e-09,3.151565551757812500e+00,4.902456328272819519e-02,-6.343771237879991531e-03
3.842000000000000000e+03,2.200000047683715820e+00,1.899999976158142090e+00,3.116488400678463222e-09,1.230425539233692689e-09,3.151583194732666016e+00,3.724358975887298584e-02,-1.003839541226625443e-02
3.843000000000000000e+03,2.299999952316284180e+00,1.899999976158142090e+00,3.266155124137526400e-09,1.339647504039476189e-09,3.151081085205078125e+00,2.692148275673389435e-02,-1.337392348796129227e-02
3.844000000000000000e+03,2.400000095367431641e+00,1.899999976158142090e+00,3.415906446591066015e-09,1.453248965610498544e-09,3.150149106979370117e+00,1.790914312005043030e-02,-1.634839363396167755e-02
3.845000000000000000e+03,2.500000000000000000e+00,1.899999976158142090e+00,3.565708617259133462e-09,1.571253571697184270e-09,3.148867130279541016e+00,1.006968598812818527e-02,-1.896844059228897095e-02
3.846000000000000000e+03,2.599999904632568359e+00,1.899999976158142090e+00,3.715533214432298337e-09,1.693687079473704671e-09,3.147305250167846680e+00,3.277951385825872421e-03,-2.124766260385513306e-02
3.847000000000000000e+03,2.700000047683715820e+00,1.899999976158142090e+00,3.865357367516253362e-09,1.820575135091928587e-09,3.145525217056274414e+00,-2.579926745966076851e-03,-2.320423163473606110e-02
3.848000000000000000e+03,2.799999952316284180e+00,1.899999976158142090e+00,4.015160204318135584e-09,1.951942385503002697e-09,3.143580198287963867e+00,-7.607151288539171219e-03,-2.485929429531097412e-02
3.849000000000000000e+03,2.900000095367431641e+00,1.899999976158142090e+00,4.164926181715600251e-09,2.087814365836493380e-09,3.141516208648681641e+00,-1.189708616584539413e-02,-2.623620815575122833e-02
3.850000000000000000e+03,3.000000000000000000e+00,1.899999976158142090e+00,4.314641977032351861e-09,2.228213835664405451e-09,3.139372110366821289e+00,-1.553391292691230774e-02,-2.735883742570877075e-02
3.851000000000000000e+03,3.099999904632568359e+00,1.899999976158142090e+00,4.464296932127354012e-09,2.373163887625651114e-09,3.137181043624877930e+00,-1.859345473349094391e-02,-2.825150452554225922e-02
3.852000000000000000e+03,3.200000047683715820e+00,1.899999976158142090e+00,4.613883497484039253e-09,2.522686504136117946e-09,3.134971141815185547e+00,-2.114386670291423798e-02,-2.893795631825923920e-02
3.853000000000000000e+03,3.299999952316284180e+00,1.899999976158142090e+00,4.763395011764259834e-09,2.676800558987224576e-09,3.132765531539916992e+00,-2.324631437659263611e-02,-2.944093756377696991e-02
3.854000000000000000e+03,3.400000095367431641e+00,1.899999976158142090e+00,4.912827034075917254e-09,2.835525592104204406e-09,3.130583763122558594e+00,-2.495565265417098999e-02,-2.978237159550189972e-02
3.855000000000000000e+03,3.500000000000000000e+00,1.899999976158142090e+00,5.062176455794542562e-09,2.998878034787821889e-09,3.128440856933593750e+00,-2.632099203765392303e-02,-2.998247370123863220e-02
3.856000000000000000e+03,3.599999904632568359e+00,1.899999976158142090e+00,5.211441056474086508e-09,3.166874318338841476e-09,3.126350164413452148e+00,-2.738625928759574890e-02,-3.006032854318618774e-02
3.857000000000000000e+03,3.700000047683715820e+00,1.899999976158142090e+00,5.360621280203758943e-09,3.339529097701188221e-09,3.124321222305297852e+00,-2.819070406258106232e-02,-3.003337420523166656e-02
3.858000000000000000e+03,3.799999952316284180e+00,1.899999976158142090e+00,5.509716238805140165e-09,3.516854807372737923e-09,3.122361898422241211e+00,-2.876934036612510681e-02,-2.991739101707935333e-02
3.859000000000000000e+03,3.900000095367431641e+00,1.899999976158142090e+00,5.658726820456649875e-09,3.698864325940576236e-09,3.120477914810180664e+00,-2.915337309241294861e-02,-2.972699329257011414e-02
3.860000000000000000e+03,4.000000000000000000e+00,1.899999976158142090e+00,5.807654801515127474e-09,3.885567867456529711e-09,3.118673801422119141e+00,-2.937057614326477051e-02,-2.947498485445976257e-02
3.861000000000000000e+03,4.099999904632568359e+00,1.899999976158142090e+00,5.956501514248202511e-09,4.076974757794005200e-09,3.116951704025268555e+00,-2.944561652839183807e-02,-2.917312458157539368e-02
3.862000000000000000e+03,4.199999809265136719e+00,1.899999976158142090e+00,6.105269623191134087e-09,4.273094766915619402e-09,3.115313768386840820e+00,-2.940037846565246582e-02,-2.883168682456016541e-02
3.863000000000000000e+03,4.300000190734863281e+00,1.899999976158142090e+00,6.253962236968391153e-09,4.473935888427149621e-09,3.113759994506835938e+00,-2.925423718988895416e-02,-2.845987118780612946e-02
3.864000000000000000e+03,4.400000095367431641e+00,1.899999976158142090e+00,6.402581131936813108e-09,4.679503451399114056e-09,3.112290620803833008e+00,-2.902430668473243713e-02,-2.806541323661804199e-02
3.865000000000000000e+03,4.500000000000000000e+00,1.899999976158142090e+00,6.551129860810078753e-09,4.889804117169660458e-09,3.110904455184936523e+00,-2.872566692531108856e-02,-2.765554748475551605e-02
3.866000000000000000e+03,4.599999904632568359e+00,1.899999976158142090e+00,6.699611088123447189e-09,5.104843658898516878e-09,3.109600067138671875e+00,-2.837157808244228363e-02,-2.723622135818004608e-02
3.867000000000000000e+03,4.699999809265136719e+00,1.899999976158142090e+00,6.848028366590597216e-09,5.324626961566991667e-09,3.108375310897827148e+00,-2.797365374863147736e-02,-2.681261114776134491e-02
3.868000000000000000e+03,4.800000190734863281e+00,1.899999976158142090e+00,6.996385693014417484e-09,5.549158466067183326e-09,3.107228279113769531e+00,-2.754203975200653076e-02,-2.638921327888965607e-02
3.869000000000000000e+03,4.900000095367431641e+00,1.899999976158142090e+00,7.144684843751747394e-09,5.778440392845141105e-09,3.106155872344970703e+00,-2.708557061851024628e-02,-2.596948109567165375e-02
3.870000000000000000e+03,5.000000000000000000e+00,1.899999976158142090e+00,7.292929371516265746e-09,6.012476738703753654e-09,3.105155467987060547e+00,-2.661188691854476929e-02,-2.555677853524684906e-02
3.871000000000000000e+03,5.099999904632568359e+00,1.899999976158142090e+00,7.441122384932441491e-09,6.251269724089070223e-09,3.104224205017089844e+00,-2.612758241593837738e-02,-2.515357173979282379e-02
3.872000000000000000e+03,5.199999809265136719e+00,1.899999976158142090e+00,7.589267880803163280e-09,6.494821569447140064e-09,3.103358983993530273e+00,-2.563830465078353882e-02,-2.476191893219947815e-02
3.873000000000000000e+03,5.300000190734863281e+00,1.899999976158142090e+00,7.737368079574480362e-09,6.743135827491641976e-09,3.102556467056274414e+00,-2.514886297285556793e-02,-2.438353933393955231e-02
3.874000000000000000e+03,5.400000095367431641e+00,1.899999976158142090e+00,7.885425645781651838e-09,6.996211165954946409e-09,3.101813793182373047e+00,-2.466332726180553436e-02,-2.401942200958728790e-02
3.875000000000000000e+03,5.500000000000000000e+00,1.899999976158142090e+00,8.033444132138356508e-09,7.254050693461522314e-09,3.101127386093139648e+00,-2.418509125709533691e-02,-2.367076277732849121e-02
3.876000000000000000e+03,5.599999904632568359e+00,1.899999976158142090e+00,8.181425315001433773e-09,7.516654854100579541e-09,3.100494623184204102e+00,-2.371696755290031433e-02,-2.333812043070793152e-02
3.877000000000000000e+03,5.699999809265136719e+00,1.899999976158142090e+00,8.329371858906142734e-09,7.784024980139747640e-09,3.099911928176879883e+00,-2.326125465333461761e-02,-2.302188985049724579e-02
3.878000000000000000e+03,5.800000190734863281e+00,1.899999976158142090e+00,8.477288204744581890e-09,8.056161959757446311e-09,3.099376678466796875e+00,-2.281978353857994080e-02,-2.272234670817852020e-02
3.879000000000000000e+03,5.900000095367431641e+00,1.899999976158142090e+00,8.625174352516751242e-09,8.333065792953675555e-09,3.098885774612426758e+00,-2.239399962127208710e-02,-2.243923768401145935e-02
3.880000000000000000e+03,6.000000000000000000e+00,1.899999976158142090e+00,8.773032078579490189e-09,8.614735591550015670e-09,3.098436355590820312e+00,-2.198498509824275970e-02,-2.217268757522106171e-02
3.881000000000000000e+03,6.099999904632568359e+00,1.899999976158142090e+00,8.920865823824897234e-09,8.901173131903306057e-09,3.098025560379028320e+00,-2.159352414309978485e-02,-2.192235179245471954e-02
3.882000000000000000e+03,6.199999809265136719e+00,1.899999976158142090e+00,9.068676476431392075e-09,9.192378414013546717e-09,3.097651243209838867e+00,-2.122013270854949951e-02,-2.168786153197288513e-02
3.883000000000000000e+03,6.300000190734863281e+00,1.899999976158142090e+00,9.216465812755814113e-09,9.488351437880737649e-09,3.097310304641723633e+00,-2.086510136723518372e-02,-2.146885544061660767e-02
3.884000000000000000e+03,6.400000095367431641e+00,1.899999976158142090e+00,9.364234720976583048e-09,9.789091315326459153e-09,3.097000598907470703e+00,-2.052852697670459747e-02,-2.126455679535865784e-02
3.885000000000000000e+03,6.500000000000000000e+00,1.899999976158142090e+00,9.511986753807377681e-09,1.009459893452913093e-08,3.096719980239868164e+00,-2.021033875644207001e-02,-2.107466571033000946e-02
3.886000000000000000e+03,6.599999904632568359e+00,1.899999976158142090e+00,9.659721911248198012e-09,1.040487251913191358e-08,3.096466064453125000e+00,-1.991032622754573822e-02,-2.089850045740604401e-02
3.887000000000000000e+03,6.699999809265136719e+00,1.899999976158142090e+00,9.807441969655883440e-09,1.071991384549164650e-08,3.096236944198608398e+00,-1.962815970182418823e-02,-2.073543146252632141e-02
3.888000000000000000e+03,6.800000190734863281e+00,1.899999976158142090e+00,9.955148705387273367e-09,1.103972291360832969e-08,3.096030473709106445e+00,-1.936342008411884308e-02,-2.058490552008152008e-02
3.889000000000000000e+03,6.900000095367431641e+00,1.899999976158142090e+00,1.010284300662078749e-08,1.136429705894670406e-08,3.095845222473144531e+00,-1.911560446023941040e-02,-2.044600248336791992e-02
3.890000000000000000e+03,7.000000000000000000e+00,1.899999976158142090e+00,1.025052576153484551e-08,1.169363716968518929e-08,3.095679044723510742e+00,-1.888415031135082245e-02,-2.031834237277507782e-02
3.891000000000000000e+03,7.099999904632568359e+00,1.899999976158142090e+00,1.039819874648628684e-08,1.202774324582378540e-08,3.095530509948730469e+00,-1.866844855248928070e-02,-2.020118944346904755e-02
3.892000000000000000e+03,7.199999809265136719e+00,1.899999976158142090e+00,1.054586196147511146e-08,1.236661439918407268e-08,3.095398187637329102e+00,-1.846785284578800201e-02,-2.009391225874423981e-02
3.893000000000000000e+03,7.300000190734863281e+00,1.899999976158142090e+00,1.069351807103657848e-08,1.271025240612289053e-08,3.095280408859252930e+00,-1.828168891370296478e-02,-1.999597437679767609e-02
3.894000000000000000e+03,7.400000095367431641e+00,1.899999976158142090e+00,1.084116618699226819e-08,1.305865371392656016e-08,3.095176219940185547e+00,-1.810927689075469971e-02,-1.990650221705436707e-02
3.895000000000000000e+03,7.500000000000000000e+00,1.899999976158142090e+00,1.098880719752060031e-08,1.341181921077350125e-08,3.095084190368652344e+00,-1.794991828501224518e-02,-1.982518099248409271e-02
3.896000000000000000e+03,7.599999904632568359e+00,1.899999976158142090e+00,1.113644287897841423e-08,1.376974889666371382e-08,3.095003366470336914e+00,-1.780292019248008728e-02,-1.975136250257492065e-02
3.897000000000000000e+03,7.699999809265136719e+00,1.899999976158142090e+00,1.128407234318729024e-08,1.413244277159719786e-08,3.094932317733764648e+00,-1.766759157180786133e-02,-1.968450844287872314e-02
3.898000000000000000e+03,7.800000190734863281e+00,1.899999976158142090e+00,1.143169825468248746e-08,1.449990172375237307e-08,3.094870567321777344e+00,-1.754325628280639648e-02,-1.962418667972087860e-02
3.899000000000000000e+03,7.900000095367431641e+00,1.899999976158142090e+00,1.157931972528558617e-08,1.487212220041556066e-08,3.094816923141479492e+00,-1.742924563586711884e-02,-1.956964284181594849e-02
3.900000000000000000e+03,8.000000000000000000e+00,1.899999976158142090e+00,1.172693675499658639e-08,1.524910508976518031e-08,3.094770669937133789e+00,-1.732491329312324524e-02,-1.952068135142326355e-02
3.901000000000000000e+03,8.100000381469726562e+00,1.899999976158142090e+00,1.187455200835074720e-08,1.563085305633649114e-08,3.094731092453002930e+00,-1.722962781786918640e-02,-1.947686821222305298e-02
3.902000000000000000e+03,8.199999809265136719e+00,1.899999976158142090e+00,1.202216282081280951e-08,1.601735988288055523e-08,3.094697237014770508e+00,-1.714278757572174072e-02,-1.943742111325263977e-02
3.903000000000000000e+03,8.300000190734863281e+00,1.899999976158142090e+00,1.216977185691803243e-08,1.640863267482473020e-08,3.094668865203857422e+00,-1.706380769610404968e-02,-1.940259151160717010e-02
3.904000000000000000e+03,8.399999618530273438e+00,1.899999976158142090e+00,1.231737822848799624e-08,1.680466255038481904e-08,3.094645023345947266e+00,-1.699212938547134399e-02,-1.937128417193889618e-02
3.905000000000000000e+03,8.500000000000000000e+00,1.899999976158142090e+00,1.246498371187954035e-08,1.720545839134501875e-08,3.094625473022460938e+00,-1.692721992731094360e-02,-1.934389024972915649e-02
3.906000000000000000e+03,8.600000381469726562e+00,1.899999976158142090e+00,1.261258741891424506e-08,1.761101664499165054e-08,3.094609498977661133e+00,-1.686857454478740692e-02,-1.931954361498355865e-02
3.907000000000000000e+03,8.699999809265136719e+00,1.899999976158142090e+00,1.276018846141369067e-08,1.802133020589735679e-08,3.094596862792968750e+00,-1.681571267545223236e-02,-1.929794810712337494e-02
3.908000000000000000e+03,8.800000190734863281e+00,1.899999976158142090e+00,1.290779039209155599e-08,1.843641150856001332e-08,3.094587087631225586e+00,-1.676818169653415680e-02,-1.927937567234039307e-02
3.909000000000000000e+03,8.899999618530273438e+00,1.899999976158142090e+00,1.305538877005574250e-08,1.885624811848174431e-08,3.094579696655273438e+00,-1.672554947435855865e-02,-1.926284283399581909e-02
3.910000000000000000e+03,9.000000000000000000e+00,1.899999976158142090e+00,1.320298892437676841e-08,1.928084891744674678e-08,3.094574451446533203e+00,-1.668741740286350250e-02,-1.924884505569934845e-02
3.911000000000000000e+03,9.100000381469726562e+00,1.899999976158142090e+00,1.335058730234095492e-08,1.971021212909818132e-08,3.094571113586425781e+00,-1.665340550243854523e-02,-1.923661492764949799e-02
3.912000000000000000e+03,9.199999809265136719e+00,1.899999976158142090e+00,1.349818479212672173e-08,2.014433064800869033e-08,3.094569444656372070e+00,-1.662315987050533295e-02,-1.922595687210559845e-02
3.913000000000000000e+03,9.300000190734863281e+00,1.899999976158142090e+00,1.364578317009090824e-08,2.058321335596247081e-08,3.094569206237792969e+00,-1.659634895622730255e-02,-1.921723037958145142e-02
3.914000000000000000e+03,9.399999618530273438e+00,1.899999976158142090e+00,1.379337888351983565e-08,2.102685314753216517e-08,3.094569921493530273e+00,-1.657266914844512939e-02,-1.920953951776027679e-02
3.915000000000000000e+03,9.500000000000000000e+00,1.899999976158142090e+00,1.394097726148402216e-08,2.147525712814513099e-08,3.094571828842163086e+00,-1.655182801187038422e-02,-1.920345984399318695e-02
3.916000000000000000e+03,9.600000381469726562e+00,1.899999976158142090e+00,1.408857386309136928e-08,2.192841996873085009e-08,3.094574451446533203e+00,-1.653356477618217468e-02,-1.919830404222011566e-02
3.917000000000000000e+03,9.699999809265136719e+00,1.899999976158142090e+00,1.423617046469871639e-08,2.238633989293248305e-08,3.094577789306640625e+00,-1.651762984693050385e-02,-1.919394172728061676e-02
3.918000000000000000e+03,9.800000190734863281e+00,1.899999976158142090e+00,1.438376795448448320e-08,2.284902400617738749e-08,3.094581604003906250e+00,-1.650379784405231476e-02,-1.919080689549446106e-02
3.919000000000000000e+03,9.899999618530273438e+00,1.899999976158142090e+00,1.453136366791341061e-08,2.331646165032452700e-08,3.094585895538330078e+00,-1.649185828864574432e-02,-1.918806135654449463e-02
3.920000000000000000e+03,1.000000000000000000e+01,1.899999976158142090e+00,1.467896115769917742e-08,2.378866525987177738e-08,3.094590425491333008e+00,-1.648161746561527252e-02,-1.918634027242660522e-02
3.921000000000000000e+03,1.010000038146972656e+01,1.899999976158142090e+00,1.482655864748494423e-08,2.426562772939178103e-08,3.094595193862915039e+00,-1.647289656102657318e-02,-1.918501406908035278e-02
3.922000000000000000e+03,1.019999980926513672e+01,1.899999976158142090e+00,1.497415524909229134e-08,2.474734550617085915e-08,3.094599962234497070e+00,-1.646553725004196167e-02,-1.918398588895797729e-02
3.923000000000000000e+03,1.030000019073486328e+01,1.899999976158142090e+00,1.512175273887805815e-08,2.523382747199320875e-08,3.094604969024658203e+00,-1.645938493311405182e-02,-1.918376982212066650e-02
3.924000000000000000e+03,1.039999961853027344e+01,1.899999976158142090e+00,1.526934845230698556e-08,2.572506296871779341e-08,3.094610214233398438e+00,-1.645430736243724823e-02,-1.918353140354156494e-02
3.925000000000000000e+03,1.050000000000000000e+01,1.899999976158142090e+00,1.541694771844959178e-08,2.622106443084248895e-08,3.094615221023559570e+00,-1.645018160343170166e-02,-1.918398588895797729e-02
3.926000000000000000e+03,1.060000038146972656e+01,1.899999976158142090e+00,1.556454520823535859e-08,2.672182297658309835e-08,3.094620227813720703e+00,-1.644689030945301056e-02,-1.918450370430946350e-02
3.927000000000000000e+03,1.069999980926513672e+01,1.899999976158142090e+00,1.571214269802112540e-08,2.722733860593962163e-08,3.094624996185302734e+00,-1.644433662295341492e-02,-1.918504387140274048e-02
3.928000000000000000e+03,1.080000019073486328e+01,1.899999976158142090e+00,1.585974196416373161e-08,2.773761664798257698e-08,3.094629764556884766e+00,-1.644242368638515472e-02,-1.918614096939563751e-02
3.929000000000000000e+03,1.089999961853027344e+01,1.899999976158142090e+00,1.600733945394949842e-08,2.825264822092776740e-08,3.094634532928466797e+00,-1.644106954336166382e-02,-1.918699219822883606e-02
3.930000000000000000e+03,1.100000000000000000e+01,1.899999976158142090e+00,1.615493872009210463e-08,2.877244575927306869e-08,3.094639062881469727e+00,-1.644020155072212219e-02,-1.918833889067173004e-02
3.931000000000000000e+03,1.110000038146972656e+01,1.899999976158142090e+00,1.630253798623471084e-08,2.929700215759112325e-08,3.094643354415893555e+00,-1.643974706530570984e-02,-1.918957382440567017e-02
3.932000000000000000e+03,1.119999980926513672e+01,1.899999976158142090e+00,1.645013547602047765e-08,2.982631386316825228e-08,3.094647407531738281e+00,-1.643964834511280060e-02,-1.919067651033401489e-02
3.933000000000000000e+03,1.130000019073486328e+01,1.899999976158142090e+00,1.659773651851992327e-08,3.036038620507497399e-08,3.094651460647583008e+00,-1.643985137343406677e-02,-1.919220201671123505e-02
3.934000000000000000e+03,1.139999961853027344e+01,1.899999976158142090e+00,1.674533400830569008e-08,3.089921563059760956e-08,3.094655275344848633e+00,-1.644030585885047913e-02,-1.919336430728435516e-02
3.935000000000000000e+03,1.150000000000000000e+01,1.899999976158142090e+00,1.689293505080513569e-08,3.144280924516351661e-08,3.094658851623535156e+00,-1.644097082316875458e-02,-1.919491961598396301e-02
3.936000000000000000e+03,1.160000038146972656e+01,1.899999976158142090e+00,1.704053431694774190e-08,3.199115994334533752e-08,3.094662189483642578e+00,-1.644180715084075928e-02,-1.919627562165260315e-02
3.937000000000000000e+03,1.169999980926513672e+01,1.899999976158142090e+00,1.718813358309034811e-08,3.254426772514307231e-08,3.094665288925170898e+00,-1.644278131425380707e-02,-1.919742301106452942e-02
3.938000000000000000e+03,1.180000019073486328e+01,1.899999976158142090e+00,1.733573462558979372e-08,3.310213614327039977e-08,3.094668388366699219e+00,-1.644386351108551025e-02,-1.919893175363540649e-02
3.939000000000000000e+03,1.189999961853027344e+01,1.899999976158142090e+00,1.748333389173239993e-08,3.366476164501364110e-08,3.094671249389648438e+00,-1.644502766430377960e-02,-1.920002140104770660e-02
3.940000000000000000e+03,1.200000000000000000e+01,1.899999976158142090e+00,1.763093493423184555e-08,3.423215133580015390e-08,3.094673871994018555e+00,-1.644625142216682434e-02,-1.920145936310291290e-02
3.941000000000000000e+03,1.210000038146972656e+01,1.899999976158142090e+00,1.777853597673129116e-08,3.480429811020258057e-08,3.094676256179809570e+00,-1.644751615822315216e-02,-1.920266076922416687e-02
3.942000000000000000e+03,1.219999980926513672e+01,1.899999976158142090e+00,1.792613524287389737e-08,3.538119841550724232e-08,3.094678640365600586e+00,-1.644880510866641998e-02,-1.920362561941146851e-02
3.943000000000000000e+03,1.230000019073486328e+01,1.899999976158142090e+00,1.807373628537334298e-08,3.596286290985517553e-08,3.094680786132812500e+00,-1.645010150969028473e-02,-1.920492388308048248e-02
3.944000000000000000e+03,1.239999961853027344e+01,1.899999976158142090e+00,1.822133732787278859e-08,3.654928448781902262e-08,3.094682693481445312e+00,-1.645139418542385101e-02,-1.920578815042972565e-02
3.945000000000000000e+03,1.250000000000000000e+01,1.899999976158142090e+00,1.836893837037223420e-08,3.714046670211246237e-08,3.094684600830078125e+00,-1.645267382264137268e-02,-1.920698583126068115e-02
3.946000000000000000e+03,1.260000038146972656e+01,1.899999976158142090e+00,1.851654118922851922e-08,3.773640955273549480e-08,3.094686269760131836e+00,-1.645393110811710358e-02,-1.920793764293193817e-02
3.947000000000000000e+03,1.269999980926513672e+01,1.899999976158142090e+00,1.866414045537112543e-08,3.833710593426076230e-08,3.094687700271606445e+00,-1.645515859127044678e-02,-1.920864544808864594e-02
3.948000000000000000e+03,1.280000019073486328e+01,1.899999976158142090e+00,1.881174327422741044e-08,3.894256650482930127e-08,3.094689130783081055e+00,-1.645635068416595459e-02,-1.920968666672706604e-02
3.949000000000000000e+03,1.289999961853027344e+01,1.899999976158142090e+00,1.895934254037001665e-08,3.955278060630007531e-08,3.094690561294555664e+00,-1.645750366151332855e-02,-1.921029202640056610e-02
3.950000000000000000e+03,1.300000000000000000e+01,1.899999976158142090e+00,1.910694535922630166e-08,4.016776244952779962e-08,3.094691753387451172e+00,-1.645861379802227020e-02,-1.921123266220092773e-02
3.951000000000000000e+03,1.310000038146972656e+01,1.899999976158142090e+00,1.925454640172574727e-08,4.078750137637143780e-08,3.094692945480346680e+00,-1.645967923104763031e-02,-1.921193115413188934e-02
3.952000000000000000e+03,1.319999980926513672e+01,1.899999976158142090e+00,1.940214744422519288e-08,4.141199028140363225e-08,3.094693899154663086e+00,-1.646069809794425964e-02,-1.921239122748374939e-02
3.953000000000000000e+03,1.330000019073486328e+01,1.899999976158142090e+00,1.954975026308147790e-08,4.204124692819277698e-08,3.094694852828979492e+00,-1.646166667342185974e-02,-1.921319030225276947e-02
3.954000000000000000e+03,1.339999961853027344e+01,1.899999976158142090e+00,1.969735130558092351e-08,4.267525710588415677e-08,3.094695568084716797e+00,-1.646258868277072906e-02,-1.921356283128261566e-02
3.955000000000000000e+03,1.350000000000000000e+01,1.899999976158142090e+00,1.984495234808036912e-08,4.331403147261880804e-08,3.094696283340454102e+00,-1.646346412599086761e-02,-1.921427622437477112e-02
3.956000000000000000e+03,1.360000038146972656e+01,1.899999976158142090e+00,1.999255516693665413e-08,4.395756647568305198e-08,3.094696998596191406e+00,-1.646429114043712616e-02,-1.921476051211357117e-02
3.957000000000000000e+03,1.369999980926513672e+01,1.899999976158142090e+00,2.014015620943609974e-08,4.460585145693585218e-08,3.094697713851928711e+00,-1.646507531404495239e-02,-1.921501569449901581e-02
3.958000000000000000e+03,1.380000019073486328e+01,1.899999976158142090e+00,2.028775902829238476e-08,4.525890417994560266e-08,3.094698190689086914e+00,-1.646581478416919708e-02,-1.921561919152736664e-02
3.959000000000000000e+03,1.389999961853027344e+01,1.899999976158142090e+00,2.043536007079183037e-08,4.591671043385758821e-08,3.094698667526245117e+00,-1.646651327610015869e-02,-1.921580731868743896e-02
3.960000000000000000e+03,1.400000000000000000e+01,1.899999976158142090e+00,2.058296111329127598e-08,4.657928087681284524e-08,3.094699144363403320e+00,-1.646717265248298645e-02,-1.921634934842586517e-02
3.961000000000000000e+03,1.410000038146972656e+01,1.899999976158142090e+00,2.073056393214756099e-08,4.724660840338401613e-08,3.094699621200561523e+00,-1.646779850125312805e-02,-1.921667344868183136e-02
3.962000000000000000e+03,1.419999980926513672e+01,1.899999976158142090e+00,2.087816497464700660e-08,4.791868946085742209e-08,3.094699859619140625e+00,-1.646839082241058350e-02,-1.921677961945533752e-02
3.963000000000000000e+03,1.430000019073486328e+01,1.899999976158142090e+00,2.102576779350329161e-08,4.859553826008777833e-08,3.094700098037719727e+00,-1.646895706653594971e-02,-1.921724714338779449e-02
3.964000000000000000e+03,1.439999961853027344e+01,1.899999976158142090e+00,2.117336883600273723e-08,4.927713703750669083e-08,3.094700574874877930e+00,-1.646949909627437592e-02,-1.921731233596801758e-02
3.965000000000000000e+03,1.450000000000000000e+01,1.899999976158142090e+00,2.132097165485902224e-08,4.996350355668255361e-08,3.094700813293457031e+00,-1.647002249956130981e-02,-1.921774633228778839e-02
3.966000000000000000e+03,1.460000038146972656e+01,1.899999976158142090e+00,2.146857447371530725e-08,5.065462715947433026e-08,3.094701051712036133e+00,-1.647053286433219910e-02,-1.921797357499599457e-02
3.967000000000000000e+03,1.469999980926513672e+01,1.899999976158142090e+00,2.161617551621475286e-08,5.135050429316834197e-08,3.094701290130615234e+00,-1.647103391587734222e-02,-1.921800151467323303e-02
3.968000000000000000e+03,1.480000019073486328e+01,1.899999976158142090e+00,2.176377833507103787e-08,5.205114561590562516e-08,3.094701290130615234e+00,-1.647153683006763458e-02,-1.921840757131576538e-02
3.969000000000000000e+03,1.489999961853027344e+01,1.899999976158142090e+00,2.191137937757048348e-08,5.275654046954514342e-08,3.094701528549194336e+00,-1.647204533219337463e-02,-1.921842806041240692e-02
3.970000000000000000e+03,1.500000000000000000e+01,1.899999976158142090e+00,2.205898219642676850e-08,5.346670306494161196e-08,3.094701766967773438e+00,-1.647256873548030853e-02,-1.921883597970008850e-02
3.971000000000000000e+03,1.510000038146972656e+01,1.899999976158142090e+00,2.220658501528305351e-08,5.418162274395399436e-08,3.094702005386352539e+00,-1.647311449050903320e-02,-1.921905949711799622e-02
3.972000000000000000e+03,1.519999980926513672e+01,1.899999976158142090e+00,2.235418605778249912e-08,5.490129595386861183e-08,3.094702243804931641e+00,-1.647369563579559326e-02,-1.921910792589187622e-02
3.973000000000000000e+03,1.530000019073486328e+01,1.899999976158142090e+00,2.250178887663878413e-08,5.562573335282650078e-08,3.094702482223510742e+00,-1.647432334721088409e-02,-1.921956054866313934e-02
3.974000000000000000e+03,1.539999961853027344e+01,1.899999976158142090e+00,2.264938991913822974e-08,5.635492428268662479e-08,3.094702720642089844e+00,-1.647500693798065186e-02,-1.921965926885604858e-02
3.975000000000000000e+03,1.550000000000000000e+01,1.899999976158142090e+00,2.279699273799451475e-08,5.708887940159002028e-08,3.094703197479248047e+00,-1.647576503455638885e-02,-1.922018080949783325e-02
3.976000000000000000e+03,1.560000038146972656e+01,1.899999976158142090e+00,2.294459555685079977e-08,5.782759515682300844e-08,3.094703435897827148e+00,-1.647660881280899048e-02,-1.922055706381797791e-02
3.977000000000000000e+03,1.569999980926513672e+01,1.899999976158142090e+00,2.309219659935024538e-08,5.857106089024455287e-08,3.094703912734985352e+00,-1.647756062448024750e-02,-1.922080293297767639e-02
3.978000000000000000e+03,1.580000019073486328e+01,1.899999976158142090e+00,2.323979941820653039e-08,5.931929436542304757e-08,3.094704627990722656e+00,-1.647863723337650299e-02,-1.922150515019893646e-02
3.979000000000000000e+03,1.589999961853027344e+01,1.899999976158142090e+00,2.338740046070597600e-08,6.007228137150377734e-08,3.094705343246459961e+00,-1.647985912859439850e-02,-1.922191120684146881e-02
3.980000000000000000e+03,1.600000000000000000e+01,1.899999976158142090e+00,2.353500327956226101e-08,6.083003256662777858e-08,3.094706058502197266e+00,-1.648125424981117249e-02,-1.922280900180339813e-02
3.981000000000000000e+03,1.610000038146972656e+01,1.899999976158142090e+00,2.368260609841854603e-08,6.159254439808137249e-08,3.094707012176513672e+00,-1.648284681141376495e-02,-1.922363787889480591e-02
3.982000000000000000e+03,1.620000076293945312e+01,1.899999976158142090e+00,2.383021069363167044e-08,6.235980976043720148e-08,3.094708204269409180e+00,-1.648466475307941437e-02,-1.922461763024330139e-02
3.983000000000000000e+03,1.629999923706054688e+01,1.899999976158142090e+00,2.397780995977427665e-08,6.313182865369526553e-08,3.094709634780883789e+00,-1.648673973977565765e-02,-1.922538504004478455e-02
3.984000000000000000e+03,1.639999961853027344e+01,1.899999976158142090e+00,2.412541455498740106e-08,6.390861528871027986e-08,3.094711303710937500e+00,-1.648910529911518097e-02,-1.922712661325931549e-02
3.985000000000000000e+03,1.650000000000000000e+01,1.899999976158142090e+00,2.427301737384368607e-08,6.469016256005488685e-08,3.094713449478149414e+00,-1.649179682135581970e-02,-1.922872103750705719e-02
3.986000000000000000e+03,1.660000038146972656e+01,1.899999976158142090e+00,2.442062019269997108e-08,6.547646336230172892e-08,3.094715833663940430e+00,-1.649485155940055847e-02,-1.923059113323688507e-02
3.987000000000000000e+03,1.670000076293945312e+01,1.899999976158142090e+00,2.456822478791309550e-08,6.626753190630552126e-08,3.094718456268310547e+00,-1.649830676615238190e-02,-1.923277974128723145e-02
3.988000000000000000e+03,1.679999923706054688e+01,1.899999976158142090e+00,2.471582583041254111e-08,6.706333977035683347e-08,3.094721794128417969e+00,-1.650220341980457306e-02,-1.923494972288608551e-02
3.989000000000000000e+03,1.689999961853027344e+01,1.899999976158142090e+00,2.486343042562566552e-08,6.786391537616509595e-08,3.094725608825683594e+00,-1.650657504796981812e-02,-1.923830620944499969e-02
3.990000000000000000e+03,1.700000000000000000e+01,1.899999976158142090e+00,2.501103502083878993e-08,6.866925872373030870e-08,3.094729900360107422e+00,-1.651145890355110168e-02,-1.924175955355167389e-02
3.991000000000000000e+03,1.710000038146972656e+01,1.899999976158142090e+00,2.515863961605191435e-08,6.947936270762511413e-08,3.094735145568847656e+00,-1.651688478887081146e-02,-1.924575865268707275e-02
3.992000000000000000e+03,1.720000076293945312e+01,1.899999976158142090e+00,2.530624421126503876e-08,7.029422022242215462e-08,3.094740867614746094e+00,-1.652287691831588745e-02,-1.925037615001201630e-02
3.993000000000000000e+03,1.729999923706054688e+01,1.899999976158142090e+00,2.545384703012132377e-08,7.111381705726671498e-08,3.094747781753540039e+00,-1.652944460511207581e-02,-1.925530470907688141e-02
3.994000000000000000e+03,1.739999961853027344e+01,1.899999976158142090e+00,2.560145340169128758e-08,7.193819584472294082e-08,3.094755411148071289e+00,-1.653658412396907806e-02,-1.926178485155105591e-02
3.995000000000000000e+03,1.750000000000000000e+01,1.899999976158142090e+00,2.574905977326125139e-08,7.276732816308140173e-08,3.094764232635498047e+00,-1.654427498579025269e-02,-1.926875486969947815e-02
3.996000000000000000e+03,1.760000038146972656e+01,1.899999976158142090e+00,2.589666792118805461e-08,7.360122111776945530e-08,3.094774007797241211e+00,-1.655246503651142120e-02,-1.927669346332550049e-02
3.997000000000000000e+03,1.770000076293945312e+01,1.899999976158142090e+00,2.604427606911485782e-08,7.443987470878710155e-08,3.094785213470458984e+00,-1.656106673181056976e-02,-1.928569748997688293e-02
3.998000000000000000e+03,1.779999923706054688e+01,1.899999976158142090e+00,2.619188066432798223e-08,7.528326761985226767e-08,3.094797611236572266e+00,-1.656994968652725220e-02,-1.929547823965549469e-02
3.999000000000000000e+03,1.789999961853027344e+01,1.899999976158142090e+00,2.633949058861162484e-08,7.613143537810174166e-08,3.094811439514160156e+00,-1.657893136143684387e-02,-1.930728368461132050e-02
4.000000000000000000e+03,1.800000000000000000e+01,1.899999976158142090e+00,2.648710051289526746e-08,7.698436377268080832e-08,3.094826698303222656e+00,-1.658776216208934784e-02,-1.932003907859325409e-02
4.001000000000000000e+03,1.810000038146972656e+01,1.899999976158142090e+00,2.663471221353574947e-08,7.784204569816211006e-08,3.094843149185180664e+00,-1.659611612558364868e-02,-1.933418959379196167e-02
4.002000000000000000e+03,1.820000076293945312e+01,1.899999976158142090e+00,2.678232391417623148e-08,7.870448825997300446e-08,3.094861030578613281e+00,-1.660357601940631866e-02,-1.934976316988468170e-02
4.003000000000000000e+03,1.829999923706054688e+01,1.899999976158142090e+00,2.692993383845987410e-08,7.957167724725877633e-08,3.094880104064941406e+00,-1.660962775349617004e-02,-1.936635933816432953e-02
4.004000000000000000e+03,1.839999961853027344e+01,1.899999976158142090e+00,2.707754909181403491e-08,8.044363397630149848e-08,3.094900131225585938e+00,-1.661364734172821045e-02,-1.938505470752716064e-02
4.005000000000000000e+03,1.850000000000000000e+01,1.899999976158142090e+00,2.722516434516819572e-08,8.132035134167381329e-08,3.094921112060546875e+00,-1.661490462720394135e-02,-1.940452679991722107e-02
4.006000000000000000e+03,1.860000038146972656e+01,1.899999976158142090e+00,2.737277959852235654e-08,8.220182934337572078e-08,3.094942569732666016e+00,-1.661256328225135803e-02,-1.942488364875316620e-02
4.007000000000000000e+03,1.870000076293945312e+01,1.899999976158142090e+00,2.752039662823335675e-08,8.308806798140722094e-08,3.094964027404785156e+00,-1.660570316016674042e-02,-1.944570429623126984e-02
4.008000000000000000e+03,1.879999923706054688e+01,1.899999976158142090e+00,2.766801188158751756e-08,8.397904593948624097e-08,3.094985246658325195e+00,-1.659335196018218994e-02,-1.946601271629333496e-02
4.009000000000000000e+03,1.889999961853027344e+01,1.899999976158142090e+00,2.781563068765535718e-08,8.487479874474956887e-08,3.095005512237548828e+00,-1.657453551888465881e-02,-1.948617212474346161e-02
4.010000000000000000e+03,1.900000000000000000e+01,1.899999976158142090e+00,2.796324949372319679e-08,8.577531218634248944e-08,3.095024585723876953e+00,-1.654835045337677002e-02,-1.950401440262794495e-02
4.011000000000000000e+03,1.910000038146972656e+01,1.899999976158142090e+00,2.811086829979103641e-08,8.668057915883764508e-08,3.095041513442993164e+00,-1.651406474411487579e-02,-1.951868459582328796e-02
4.012000000000000000e+03,1.920000076293945312e+01,1.899999976158142090e+00,2.825848888221571542e-08,8.759061387308975100e-08,3.095056056976318359e+00,-1.647121831774711609e-02,-1.952872239053249359e-02
4.013000000000000000e+03,1.929999923706054688e+01,1.899999976158142090e+00,2.840610413556987623e-08,8.850539501281673438e-08,3.095067739486694336e+00,-1.641974598169326782e-02,-1.953211054205894470e-02
4.014000000000000000e+03,1.939999961853027344e+01,1.899999976158142090e+00,2.855372294163771585e-08,8.942495099972802564e-08,3.095076084136962891e+00,-1.636007428169250488e-02,-1.952826976776123047e-02
4.015000000000000000e+03,1.950000000000000000e+01,1.899999976158142090e+00,2.870134174770555546e-08,9.034926762296890956e-08,3.095081567764282227e+00,-1.629321090877056122e-02,-1.951431855559349060e-02
4.016000000000000000e+03,1.960000038146972656e+01,1.899999976158142090e+00,2.884895877741655568e-08,9.127835198796674376e-08,3.095084190368652344e+00,-1.622075401246547699e-02,-1.948905922472476959e-02
4.017000000000000000e+03,1.970000076293945312e+01,1.899999976158142090e+00,2.899657580712755589e-08,9.221220409472152824e-08,3.095084667205810547e+00,-1.614486426115036011e-02,-1.945120468735694885e-02
4.018000000000000000e+03,1.979999923706054688e+01,1.899999976158142090e+00,2.914418750776803790e-08,9.315080973237854778e-08,3.095083475112915039e+00,-1.606812886893749237e-02,-1.939953677356243134e-02
4.019000000000000000e+03,1.989999961853027344e+01,1.899999976158142090e+00,2.929180098476535932e-08,9.409419732264723280e-08,3.095082044601440430e+00,-1.599335297942161560e-02,-1.933493278920650482e-02
4.020000000000000000e+03,2.000000000000000000e+01,1.899999976158142090e+00,2.943941446176268073e-08,9.504235265467286808e-08,3.095081090927124023e+00,-1.592337153851985931e-02,-1.925660856068134308e-02
4.021000000000000000e+03,0.000000000000000000e+00,2.000000000000000000e+00,1.355791464851684356e-37,3.690476170967717271e-38,2.824846267700195312e+00,8.474538922309875488e-01,-4.932831600308418274e-02
4.022000000000000000e+03,1.000000014901161194e-01,2.000000000000000000e+00,1.224099988039739628e-10,-6.107315608100405413e-12,2.804268598556518555e+00,7.788621783256530762e-01,-8.293160051107406616e-02
4.023000000000000000e+03,2.000000029802322388e-01,2.000000000000000000e+00,2.466852833116206511e-10,-4.918826197047865278e-12,2.826708555221557617e+00,7.230929136276245117e-01,-5.859699472784996033e-02
4.024000000000000000e+03,3.000000119209289551e-01,2.000000000000000000e+00,3.728108932676832410e-10,3.260552852019094061e-12,2.848955631256103516e+00,6.677259206771850586e-01,-3.769613429903984070e-02
4.025000000000000000e+03,4.000000059604644775e-01,2.000000000000000000e+00,5.007533276923936683e-10,1.812781695587073472e-11,2.870762825012207031e+00,6.132407784461975098e-01,-2.016944251954555511e-02
4.026000000000000000e+03,5.000000000000000000e-01,2.000000000000000000e+00,6.304606281481994756e-10,3.938723652785469653e-11,2.891885042190551758e+00,5.601020455360412598e-01,-5.889982916414737701e-03
4.027000000000000000e+03,6.000000238418579102e-01,2.000000000000000000e+00,7.618640163187251346e-10,6.675551084134312418e-11,2.912090778350830078e+00,5.087381005287170410e-01,5.331598687916994095e-03
4.028000000000000000e+03,6.999999880790710449e-01,2.000000000000000000e+00,8.948790042317966709e-10,9.996631300523972641e-11,2.931173563003540039e+00,4.595233201980590820e-01,1.373777352273464203e-02
4.029000000000000000e+03,8.000000119209289551e-01,2.000000000000000000e+00,1.029409113506574158e-09,1.387741865865876889e-10,2.948959827423095703e+00,4.127649962902069092e-01,1.961150579154491425e-02
4.030000000000000000e+03,8.999999761581420898e-01,2.000000000000000000e+00,1.165347485176937425e-09,1.829571355527193077e-10,2.965317010879516602e+00,3.686968386173248291e-01,2.326210960745811462e-02
4.031000000000000000e+03,1.000000000000000000e+00,2.000000000000000000e+00,1.302581376094735788e-09,2.323185810393368911e-10,2.980154275894165039e+00,3.274772465229034424e-01,2.501056157052516937e-02
4.032000000000000000e+03,1.100000023841857910e+00,2.000000000000000000e+00,1.440994101820081141e-09,2.866877568674652821e-10,2.993424177169799805e+00,2.891927659511566162e-01,2.517624199390411377e-02
4.033000000000000000e+03,1.200000047683715820e+00,2.000000000000000000e+00,1.580468422801573070e-09,3.459195707655737806e-10,3.005119323730468750e+00,2.538651227951049805e-01,2.406540885567665100e-02
4.034000000000000000e+03,1.299999952316284180e+00,2.000000000000000000e+00,1.720888764822348094e-09,4.098933970020368633e-10,3.015267610549926758e+00,2.214604169130325317e-01,2.196248807013034821e-02
4.035000000000000000e+03,1.399999976158142090e+00,2.000000000000000000e+00,1.862143883535338773e-09,4.785118967731705197e-10,3.023926734924316406e+00,1.918991655111312866e-01,1.912383176386356354e-02
4.036000000000000000e+03,1.500000000000000000e+00,2.000000000000000000e+00,2.004127530597088480e-09,5.516981316233682264e-10,3.031177282333374023e+00,1.650670915842056274e-01,1.577450521290302277e-02
4.037000000000000000e+03,1.600000023841857910e+00,2.000000000000000000e+00,2.146740341046893263e-09,6.293940923995933190e-10,3.037116527557373047e+00,1.408244818449020386e-01,1.210676878690719604e-02
4.038000000000000000e+03,1.700000047683715820e+00,2.000000000000000000e+00,2.289890277396011697e-09,7.115576461380612727e-10,3.041852474212646484e+00,1.190148741006851196e-01,8.280740119516849518e-03
4.039000000000000000e+03,1.799999952316284180e+00,2.000000000000000000e+00,2.433492962694572270e-09,7.981605931739466087e-10,3.045499563217163086e+00,9.947233647108078003e-02,4.426226951181888580e-03
4.040000000000000000e+03,1.899999976158142090e+00,2.000000000000000000e+00,2.577472235643085696e-09,8.891865022064848745e-10,3.048172473907470703e+00,8.202719688415527344e-02,6.452603265643119812e-04
4.041000000000000000e+03,2.000000000000000000e+00,2.000000000000000000e+00,2.721759484458630141e-09,9.846282678083184692e-10,3.049984693527221680e+00,6.651077419519424438e-02,-2.984468592330813408e-03
4.042000000000000000e+03,2.099999904632568359e+00,2.000000000000000000e+00,2.866293424830246295e-09,1.084486167535203549e-09,3.051044702529907227e+00,5.275869369506835938e-02,-6.406507920473814011e-03
4.043000000000000000e+03,2.200000047683715820e+00,2.000000000000000000e+00,3.011020988097357076e-09,1.188767306814497715e-09,3.051455259323120117e+00,4.061321914196014404e-02,-9.582362137734889984e-03
4.044000000000000000e+03,2.299999952316284180e+00,2.000000000000000000e+00,3.155893768536088828e-09,1.297482343787237369e-09,3.051311016082763672e+00,2.992505952715873718e-02,-1.248801313340663910e-02
4.045000000000000000e+03,2.400000095367431641e+00,2.000000000000000000e+00,3.300871798117555045e-09,1.410646266464254950e-09,3.050698757171630859e+00,2.055406942963600159e-02,-1.511171832680702209e-02
4.046000000000000000e+03,2.500000000000000000e+00,2.000000000000000000e+00,3.445918661526548021e-09,1.528275506146314910e-09,3.049697399139404297e+00,1.236997265368700027e-02,-1.745075546205043793e-02
4.047000000000000000e+03,2.599999904632568359e+00,2.000000000000000000e+00,3.591004160696797953e-09,1.650388936624835878e-09,3.048377513885498047e+00,5.252265371382236481e-03,-1.950996741652488708e-02
4.048000000000000000e+03,2.700000047683715820e+00,2.000000000000000000e+00,3.736103426632553237e-09,1.777006097825051256e-09,3.046801328659057617e+00,-9.098384762182831764e-04,-2.129946090281009674e-02
4.049000000000000000e+03,2.799999952316284180e+00,2.000000000000000000e+00,3.881193144650296745e-09,1.908146085582984597e-09,3.045024156570434570e+00,-6.217717658728361130e-03,-2.283304370939731598e-02
4.050000000000000000e+03,2.900000095367431641e+00,2.000000000000000000e+00,4.026256217315449248e-09,2.043828883913079153e-09,3.043094158172607422e+00,-1.076390128582715988e-02,-2.412747591733932495e-02
4.051000000000000000e+03,3.000000000000000000e+00,2.000000000000000000e+00,4.171277101505665996e-09,2.184073366606753552e-09,3.041053295135498047e+00,-1.463248394429683685e-02,-2.520073764026165009e-02
4.052000000000000000e+03,3.099999904632568359e+00,2.000000000000000000e+00,4.316244250901490886e-09,2.328898185410821497e-09,3.038937330245971680e+00,-1.789977401494979858e-02,-2.607193775475025177e-02
4.053000000000000000e+03,3.200000047683715820e+00,2.000000000000000000e+00,4.461147451451097368e-09,2.478321325938281916e-09,3.036777496337890625e+00,-2.063481882214546204e-02,-2.676023356616497040e-02
4.054000000000000000e+03,3.299999952316284180e+00,2.000000000000000000e+00,4.605979153637917989e-09,2.632358553356084485e-09,3.034599542617797852e+00,-2.289996668696403503e-02,-2.728435210883617401e-02
4.055000000000000000e+03,3.400000095367431641e+00,2.000000000000000000e+00,4.750734472480644399e-09,2.791026521009598582e-09,3.032425880432128906e+00,-2.475143969058990479e-02,-2.766272053122520447e-02
4.056000000000000000e+03,3.500000000000000000e+00,2.000000000000000000e+00,4.895408078908758398e-09,2.954338995664329559e-09,3.030274868011474609e+00,-2.623982354998588562e-02,-2.791251242160797119e-02
4.057000000000000000e+03,3.599999904632568359e+00,2.000000000000000000e+00,5.039997308387000885e-09,3.122309522041177843e-09,3.028161287307739258e+00,-2.741057984530925751e-02,-2.805019170045852661e-02
4.058000000000000000e+03,3.700000047683715820e+00,2.000000000000000000e+00,5.184501716826162010e-09,3.294951200771834010e-09,3.026097536087036133e+00,-2.830448932945728302e-02,-2.809093706309795380e-02
4.059000000000000000e+03,3.799999952316284180e+00,2.000000000000000000e+00,5.328919971958612223e-09,3.472274467952729538e-09,3.024093627929687500e+00,-2.895807661116123199e-02,-2.804859168827533722e-02
4.060000000000000000e+03,3.900000095367431641e+00,2.000000000000000000e+00,5.473252517873561374e-09,3.654290425814110677e-09,3.022157430648803711e+00,-2.940399944782257080e-02,-2.793611772358417511e-02
4.061000000000000000e+03,4.000000000000000000e+00,2.000000000000000000e+00,5.617499798660219312e-09,3.841007512050964579e-09,3.020294189453125000e+00,-2.967141196131706238e-02,-2.776491083204746246e-02
4.062000000000000000e+03,4.099999904632568359e+00,2.000000000000000000e+00,5.761663590675425439e-09,4.032434830492093170e-09,3.018508672714233398e+00,-2.978629060089588165e-02,-2.754554152488708496e-02
4.063000000000000000e+03,4.199999809265136719e+00,2.000000000000000000e+00,5.905746114365229005e-09,4.228579708609458976e-09,3.016803503036499023e+00,-2.977173030376434326e-02,-2.728728763759136200e-02
4.064000000000000000e+03,4.300000190734863281e+00,2.000000000000000000e+00,6.049750034264889109e-09,4.429450140008839298e-09,3.015180349349975586e+00,-2.964823134243488312e-02,-2.699851058423519135e-02
4.065000000000000000e+03,4.400000095367431641e+00,2.000000000000000000e+00,6.193677126731245153e-09,4.635049677403912938e-09,3.013640403747558594e+00,-2.943394333124160767e-02,-2.668625488877296448e-02
4.066000000000000000e+03,4.500000000000000000e+00,2.000000000000000000e+00,6.337530944477975936e-09,4.845384982132827645e-09,3.012182950973510742e+00,-2.914488688111305237e-02,-2.635718695819377899e-02
4.067000000000000000e+03,4.599999904632568359e+00,2.000000000000000000e+00,6.481313707951130709e-09,5.060460939176891770e-09,3.010807752609252930e+00,-2.879517897963523865e-02,-2.601679041981697083e-02
4.068000000000000000e+03,4.699999809265136719e+00,2.000000000000000000e+00,6.625029413953598123e-09,5.280281545338993965e-09,3.009512901306152344e+00,-2.839720994234085083e-02,-2.566987648606300354e-02
4.069000000000000000e+03,4.800000190734863281e+00,2.000000000000000000e+00,6.768681615199056978e-09,5.504851241511232729e-09,3.008297204971313477e+00,-2.796181477606296539e-02,-2.532064914703369141e-02
4.070000000000000000e+03,4.900000095367431641e+00,2.000000000000000000e+00,6.912272532133556524e-09,5.734171804050447463e-09,3.007158041000366211e+00,-2.749845199286937714e-02,-2.497234381735324860e-02
4.071000000000000000e+03,5.000000000000000000e+00,2.000000000000000000e+00,7.055805273381565712e-09,5.968245897491897267e-09,3.006093025207519531e+00,-2.701531536877155304e-02,-2.462816610932350159e-02
4.072000000000000000e+03,5.099999904632568359e+00,2.000000000000000000e+00,7.199284279835183042e-09,6.207076630460051092e-09,3.005099296569824219e+00,-2.651948668062686920e-02,-2.429046481847763062e-02
4.073000000000000000e+03,5.199999809265136719e+00,2.000000000000000000e+00,7.342711771940457766e-09,6.450665779311748338e-09,3.004174232482910156e+00,-2.601704560220241547e-02,-2.396123670041561127e-02
4.074000000000000000e+03,5.300000190734863281e+00,2.000000000000000000e+00,7.486091746500278532e-09,6.699016452671457955e-09,3.003314733505249023e+00,-2.551317773759365082e-02,-2.364216744899749756e-02
4.075000000000000000e+03,5.400000095367431641e+00,2.000000000000000000e+00,7.629425979871484742e-09,6.952127318271550394e-09,3.002517700195312500e+00,-2.501228079199790955e-02,-2.333424612879753113e-02
4.076000000000000000e+03,5.500000000000000000e+00,2.000000000000000000e+00,7.772717580678545346e-09,7.210000596558074903e-09,3.001780033111572266e+00,-2.451803721487522125e-02,-2.303869277238845825e-02
4.077000000000000000e+03,5.599999904632568359e+00,2.000000000000000000e+00,7.915970101635139144e-09,7.472637619798661035e-09,3.001098632812500000e+00,-2.403350360691547394e-02,-2.275611273944377899e-02
4.078000000000000000e+03,5.699999809265136719e+00,2.000000000000000000e+00,8.059186207276525238e-09,7.740038832082518638e-09,3.000470399856567383e+00,-2.356118708848953247e-02,-2.248696610331535339e-02
4.079000000000000000e+03,5.800000190734863281e+00,2.000000000000000000e+00,8.202369450316382427e-09,8.012206897944906814e-09,2.999891996383666992e+00,-2.310310117900371552e-02,-2.223160490393638611e-02
4.080000000000000000e+03,5.900000095367431641e+00,2.000000000000000000e+00,8.345519830754710711e-09,8.289138264672146761e-09,2.999361038208007812e+00,-2.266083844006061554e-02,-2.198986522853374481e-02
4.081000000000000000e+03,6.000000000000000000e+00,2.000000000000000000e+00,8.488640013126769190e-09,8.570835596799497580e-09,2.998873949050903320e+00,-2.223560586571693420e-02,-2.176197245717048645e-02
4.082000000000000000e+03,6.099999904632568359e+00,2.000000000000000000e+00,8.631734438324656367e-09,8.857298894326959271e-09,2.998428344726562500e+00,-2.182829007506370544e-02,-2.154768444597721100e-02
4.083000000000000000e+03,6.199999809265136719e+00,2.000000000000000000e+00,8.774803106348372239e-09,9.148528157254531834e-09,2.998021364212036133e+00,-2.143949270248413086e-02,-2.134674228727817535e-02
4.084000000000000000e+03,6.300000190734863281e+00,2.000000000000000000e+00,8.917850458090015309e-09,9.444525161939054669e-09,2.997650384902954102e+00,-2.106956578791141510e-02,-2.115890011191368103e-02
4.085000000000000000e+03,6.400000095367431641e+00,2.000000000000000000e+00,9.060875605371165875e-09,9.745286355666848976e-09,2.997313022613525391e+00,-2.071865834295749664e-02,-2.098349295556545258e-02
4.086000000000000000e+03,6.500000000000000000e+00,2.000000000000000000e+00,9.203881212727083039e-09,1.005081351479475416e-08,2.997006654739379883e+00,-2.038673684000968933e-02,-2.082033827900886536e-02
4.087000000000000000e+03,6.599999904632568359e+00,2.000000000000000000e+00,9.346869056514606200e-09,1.036110663932277021e-08,2.996729135513305664e+00,-2.007361687719821930e-02,-2.066886611282825470e-02
4.088000000000000000e+03,6.699999809265136719e+00,2.000000000000000000e+00,9.489840913090574759e-09,1.067616572925089713e-08,2.996478319168090820e+00,-1.977898553013801575e-02,-2.052856422960758209e-02
4.089000000000000000e+03,6.800000190734863281e+00,2.000000000000000000e+00,9.632798558811828116e-09,1.099599078457913492e-08,2.996252059936523438e+00,-1.950242929160594940e-02,-2.039898745715618134e-02
4.090000000000000000e+03,6.900000095367431641e+00,2.000000000000000000e+00,9.775742881856785971e-09,1.132058002895064419e-08,2.996048450469970703e+00,-1.924344897270202637e-02,-2.027932740747928619e-02
4.091000000000000000e+03,7.000000000000000000e+00,2.000000000000000000e+00,9.918673882225448324e-09,1.164993435054384463e-08,2.995865821838378906e+00,-1.900147646665573120e-02,-2.016930654644966125e-02
4.092000000000000000e+03,7.099999904632568359e+00,2.000000000000000000e+00,1.006159511263149398e-08,1.198405374935873624e-08,2.995702266693115234e+00,-1.877589151263237000e-02,-2.006829902529716492e-02
4.093000000000000000e+03,7.199999809265136719e+00,2.000000000000000000e+00,1.020450568489650323e-08,1.232293644903847962e-08,2.995556116104125977e+00,-1.856603287160396576e-02,-1.997576467692852020e-02
4.094000000000000000e+03,7.300000190734863281e+00,2.000000000000000000e+00,1.034740737537731547e-08,1.266658600229675358e-08,2.995426177978515625e+00,-1.837121322751045227e-02,-1.989126577973365784e-02
4.095000000000000000e+03,7.400000095367431641e+00,2.000000000000000000e+00,1.049030107225235042e-08,1.301499708006303990e-08,2.995310544967651367e+00,-1.819072850048542023e-02,-1.981402002274990082e-02
4.096000000000000000e+03,7.500000000000000000e+00,2.000000000000000000e+00,1.063318766370002777e-08,1.336817234687259770e-08,2.995208501815795898e+00,-1.802385970950126648e-02,-1.974380016326904297e-02
4.097000000000000000e+03,7.599999904632568359e+00,2.000000000000000000e+00,1.077606714972034752e-08,1.372611091454700727e-08,2.995118618011474609e+00,-1.786989159882068634e-02,-1.968003623187541962e-02
4.098000000000000000e+03,7.699999809265136719e+00,2.000000000000000000e+00,1.091894130667014906e-08,1.408881189490784891e-08,2.995039463043212891e+00,-1.772810891270637512e-02,-1.962227188050746918e-02
4.099000000000000000e+03,7.800000190734863281e+00,2.000000000000000000e+00,1.106181102272785211e-08,1.445627795249038172e-08,2.994970321655273438e+00,-1.759780757129192352e-02,-1.957015134394168854e-02
4.100000000000000000e+03,7.900000095367431641e+00,2.000000000000000000e+00,1.120467540971503695e-08,1.482850553458092691e-08,2.994910240173339844e+00,-1.747829653322696686e-02,-1.952298544347286224e-02
4.101000000000000000e+03,8.000000000000000000e+00,2.000000000000000000e+00,1.134753535581012329e-08,1.520549375300106476e-08,2.994858264923095703e+00,-1.736890152096748352e-02,-1.948064751923084259e-02
4.102000000000000000e+03,8.100000381469726562e+00,2.000000000000000000e+00,1.149039263736995053e-08,1.558724704864289379e-08,2.994813442230224609e+00,-1.726897060871124268e-02,-1.944276504218578339e-02
4.103000000000000000e+03,8.199999809265136719e+00,2.000000000000000000e+00,1.163324636621609898e-08,1.597375920425747609e-08,2.994775295257568359e+00,-1.717787049710750580e-02,-1.940861344337463379e-02
4.104000000000000000e+03,8.300000190734863281e+00,2.000000000000000000e+00,1.177609743052698832e-08,1.636503554891532985e-08,2.994742631912231445e+00,-1.709499582648277283e-02,-1.937849819660186768e-02
4.105000000000000000e+03,8.399999618530273438e+00,2.000000000000000000e+00,1.191894494212419886e-08,1.676107075354593690e-08,2.994715452194213867e+00,-1.701976545155048370e-02,-1.935137622058391571e-02
4.106000000000000000e+03,8.500000000000000000e+00,2.000000000000000000e+00,1.206179245372140940e-08,1.716187014721981541e-08,2.994692802429199219e+00,-1.695162057876586914e-02,-1.932768523693084717e-02
4.107000000000000000e+03,8.600000381469726562e+00,2.000000000000000000e+00,1.220463818896178054e-08,1.756743017722328659e-08,2.994674205780029297e+00,-1.689003780484199524e-02,-1.930660009384155273e-02
4.108000000000000000e+03,8.699999809265136719e+00,2.000000000000000000e+00,1.234748037148847288e-08,1.797774906719951105e-08,2.994659423828125000e+00,-1.683451235294342041e-02,-1.928787119686603546e-02
4.109000000000000000e+03,8.800000190734863281e+00,2.000000000000000000e+00,1.249032255401516522e-08,1.839283036986216757e-08,2.994647502899169922e+00,-1.678457111120223999e-02,-1.927180401980876923e-02
4.110000000000000000e+03,8.899999618530273438e+00,2.000000000000000000e+00,1.263316296018501816e-08,1.881267053249757737e-08,2.994638442993164062e+00,-1.673976704478263855e-02,-1.925745233893394470e-02
4.111000000000000000e+03,9.000000000000000000e+00,2.000000000000000000e+00,1.277600336635487110e-08,1.923727310781941924e-08,2.994632005691528320e+00,-1.669967919588088989e-02,-1.924534142017364502e-02
4.112000000000000000e+03,9.100000381469726562e+00,2.000000000000000000e+00,1.291884377252472405e-08,1.966663809582769318e-08,2.994627475738525391e+00,-1.666391082108020782e-02,-1.923473551869392395e-02
4.113000000000000000e+03,9.199999809265136719e+00,2.000000000000000000e+00,1.306168151415931789e-08,2.010075839109504159e-08,2.994624853134155273e+00,-1.663209311664104462e-02,-1.922546513378620148e-02
4.114000000000000000e+03,9.300000190734863281e+00,2.000000000000000000e+00,1.320452014397233143e-08,2.053964287540566147e-08,2.994623661041259766e+00,-1.660388149321079254e-02,-1.921791583299636841e-02
4.115000000000000000e+03,9.399999618530273438e+00,2.000000000000000000e+00,1.334735788560692527e-08,2.098328444333219522e-08,2.994623899459838867e+00,-1.657895185053348541e-02,-1.921121403574943542e-02
4.116000000000000000e+03,9.500000000000000000e+00,2.000000000000000000e+00,1.349019562724151911e-08,2.143168842394516105e-08,2.994625329971313477e+00,-1.655700430274009705e-02,-1.920595578849315643e-02
4.117000000000000000e+03,9.600000381469726562e+00,2.000000000000000000e+00,1.363303425705453265e-08,2.188485304088771954e-08,2.994627475738525391e+00,-1.653775945305824280e-02,-1.920147240161895752e-02
4.118000000000000000e+03,9.699999809265136719e+00,2.000000000000000000e+00,1.377587111051070679e-08,2.234277296508935251e-08,2.994630575180053711e+00,-1.652096211910247803e-02,-1.919765211641788483e-02
4.119000000000000000e+03,9.800000190734863281e+00,2.000000000000000000e+00,1.391870885214530063e-08,2.280545707833425695e-08,2.994634389877319336e+00,-1.650637388229370117e-02,-1.919494383037090302e-02
4.120000000000000000e+03,9.899999618530273438e+00,2.000000000000000000e+00,1.406154570560147476e-08,2.327289649883823586e-08,2.994638442993164062e+00,-1.649377308785915375e-02,-1.919252425432205200e-02
4.121000000000000000e+03,1.000000000000000000e+01,2.000000000000000000e+00,1.420438344723606860e-08,2.374510010838548624e-08,2.994642972946166992e+00,-1.648295670747756958e-02,-1.919104158878326416e-02
4.122000000000000000e+03,1.010000038146972656e+01,2.000000000000000000e+00,1.434722118887066244e-08,2.422206257790548989e-08,2.994647741317749023e+00,-1.647374033927917480e-02,-1.918987743556499481e-02
4.123000000000000000e+03,1.019999980926513672e+01,2.000000000000000000e+00,1.449005804232683658e-08,2.470378035468456801e-08,2.994652986526489258e+00,-1.646595261991024017e-02,-1.918894611299037933e-02
4.124000000000000000e+03,1.030000019073486328e+01,2.000000000000000000e+00,1.463289667213985012e-08,2.519026232050691760e-08,2.994657993316650391e+00,-1.645943708717823029e-02,-1.918876916170120239e-02
4.125000000000000000e+03,1.039999961853027344e+01,2.000000000000000000e+00,1.477573441377444396e-08,2.568149781723150227e-08,2.994663238525390625e+00,-1.645405218005180359e-02,-1.918852142989635468e-02
4.126000000000000000e+03,1.050000000000000000e+01,2.000000000000000000e+00,1.491857304358745751e-08,2.617749927935619780e-08,2.994668483734130859e+00,-1.644966565072536469e-02,-1.918892748653888702e-02
4.127000000000000000e+03,1.060000038146972656e+01,2.000000000000000000e+00,1.506141167340047105e-08,2.667825960145364661e-08,2.994673728942871094e+00,-1.644616201519966125e-02,-1.918936148285865784e-02
4.128000000000000000e+03,1.069999980926513672e+01,2.000000000000000000e+00,1.520425030321348459e-08,2.718377345445333049e-08,2.994678735733032227e+00,-1.644343324005603790e-02,-1.918978989124298096e-02
4.129000000000000000e+03,1.080000019073486328e+01,2.000000000000000000e+00,1.534708893302649813e-08,2.769405149649628584e-08,2.994683980941772461e+00,-1.644138060510158539e-02,-1.919075474143028259e-02
4.130000000000000000e+03,1.089999961853027344e+01,2.000000000000000000e+00,1.548992756283951167e-08,2.820908484579831565e-08,2.994688749313354492e+00,-1.643991842865943909e-02,-1.919145509600639343e-02
4.131000000000000000e+03,1.100000000000000000e+01,2.000000000000000000e+00,1.563276796900936461e-08,2.872888238414361695e-08,2.994693517684936523e+00,-1.643896661698818207e-02,-1.919263601303100586e-02
4.132000000000000000e+03,1.110000038146972656e+01,2.000000000000000000e+00,1.577560659882237815e-08,2.925343878246167151e-08,2.994698047637939453e+00,-1.643845252692699432e-02,-1.919369585812091827e-02
4.133000000000000000e+03,1.119999980926513672e+01,2.000000000000000000e+00,1.591844700499223109e-08,2.978274871168196114e-08,2.994702577590942383e+00,-1.643831469118595123e-02,-1.919461414217948914e-02
4.134000000000000000e+03,1.130000019073486328e+01,2.000000000000000000e+00,1.606128741116208403e-08,3.031682282994552224e-08,2.994706630706787109e+00,-1.643849536776542664e-02,-1.919595152139663696e-02
4.135000000000000000e+03,1.139999961853027344e+01,2.000000000000000000e+00,1.620412604097509757e-08,3.085565225546815782e-08,2.994710683822631836e+00,-1.643894240260124207e-02,-1.919692382216453552e-02
4.136000000000000000e+03,1.150000000000000000e+01,2.000000000000000000e+00,1.634696644714495051e-08,3.139924587003406486e-08,2.994714498519897461e+00,-1.643961295485496521e-02,-1.919828914105892181e-02
4.137000000000000000e+03,1.160000038146972656e+01,2.000000000000000000e+00,1.648980862967164285e-08,3.194759656821588578e-08,2.994718074798583984e+00,-1.644046604633331299e-02,-1.919945515692234039e-02
4.138000000000000000e+03,1.169999980926513672e+01,2.000000000000000000e+00,1.663264725948465639e-08,3.250070079729994177e-08,2.994721651077270508e+00,-1.644146442413330078e-02,-1.920041628181934357e-02
4.139000000000000000e+03,1.180000019073486328e+01,2.000000000000000000e+00,1.677548944201134873e-08,3.305857276814094803e-08,2.994724750518798828e+00,-1.644257828593254089e-02,-1.920174062252044678e-02
4.140000000000000000e+03,1.189999961853027344e+01,2.000000000000000000e+00,1.691832984818120167e-08,3.362119471717051056e-08,2.994727849960327148e+00,-1.644378155469894409e-02,-1.920265331864356995e-02
4.141000000000000000e+03,1.200000000000000000e+01,2.000000000000000000e+00,1.706117025435105461e-08,3.418858440795702336e-08,2.994730710983276367e+00,-1.644504815340042114e-02,-1.920391805469989777e-02
4.142000000000000000e+03,1.210000038146972656e+01,2.000000000000000000e+00,1.720401243687774695e-08,3.476073118235945003e-08,2.994733333587646484e+00,-1.644635945558547974e-02,-1.920495368540287018e-02
4.143000000000000000e+03,1.219999980926513672e+01,2.000000000000000000e+00,1.734685284304759989e-08,3.533763148766411177e-08,2.994735717773437500e+00,-1.644769497215747833e-02,-1.920575648546218872e-02
4.144000000000000000e+03,1.230000019073486328e+01,2.000000000000000000e+00,1.748969502557429223e-08,3.591929953472572379e-08,2.994738101959228516e+00,-1.644904166460037231e-02,-1.920690201222896576e-02
4.145000000000000000e+03,1.239999961853027344e+01,2.000000000000000000e+00,1.763253720810098457e-08,3.650571755997589207e-08,2.994740247726440430e+00,-1.645038835704326630e-02,-1.920762099325656891e-02
4.146000000000000000e+03,1.250000000000000000e+01,2.000000000000000000e+00,1.777537939062767691e-08,3.709690332698301063e-08,2.994742155075073242e+00,-1.645172014832496643e-02,-1.920867897570133209e-02
4.147000000000000000e+03,1.260000038146972656e+01,2.000000000000000000e+00,1.791822157315436925e-08,3.769284617760604306e-08,2.994744062423706055e+00,-1.645302772521972656e-02,-1.920949853956699371e-02
4.148000000000000000e+03,1.269999980926513672e+01,2.000000000000000000e+00,1.806106197932422219e-08,3.829354255913131055e-08,2.994745731353759766e+00,-1.645430736243724823e-02,-1.921008154749870300e-02
4.149000000000000000e+03,1.280000019073486328e+01,2.000000000000000000e+00,1.820390416185091453e-08,3.889900312969984952e-08,2.994747161865234375e+00,-1.645555160939693451e-02,-1.921100541949272156e-02
4.150000000000000000e+03,1.289999961853027344e+01,2.000000000000000000e+00,1.834674634437760687e-08,3.950921723117062356e-08,2.994748592376708984e+00,-1.645675487816333771e-02,-1.921149902045726776e-02
4.151000000000000000e+03,1.300000000000000000e+01,2.000000000000000000e+00,1.848958852690429921e-08,4.012419552168466907e-08,2.994750022888183594e+00,-1.645791344344615936e-02,-1.921233534812927246e-02
4.152000000000000000e+03,1.310000038146972656e+01,2.000000000000000000e+00,1.863243248578783096e-08,4.074393444852830726e-08,2.994751214981079102e+00,-1.645902544260025024e-02,-1.921293698251247406e-02
4.153000000000000000e+03,1.319999980926513672e+01,2.000000000000000000e+00,1.877527289195768390e-08,4.136842690627418051e-08,2.994752407073974609e+00,-1.646008715033531189e-02,-1.921330578625202179e-02
4.154000000000000000e+03,1.330000019073486328e+01,2.000000000000000000e+00,1.891811685084121564e-08,4.199768355306332523e-08,2.994753360748291016e+00,-1.646110042929649353e-02,-1.921402104198932648e-02
4.155000000000000000e+03,1.339999961853027344e+01,2.000000000000000000e+00,1.906095903336790798e-08,4.263169017804102623e-08,2.994754314422607422e+00,-1.646206527948379517e-02,-1.921431347727775574e-02
4.156000000000000000e+03,1.350000000000000000e+01,2.000000000000000000e+00,1.920380121589460032e-08,4.327046454477567750e-08,2.994755029678344727e+00,-1.646297797560691833e-02,-1.921495608985424042e-02
4.157000000000000000e+03,1.360000038146972656e+01,2.000000000000000000e+00,1.934664517477813206e-08,4.391399954783992143e-08,2.994755744934082031e+00,-1.646384224295616150e-02,-1.921537332236766815e-02
4.158000000000000000e+03,1.369999980926513672e+01,2.000000000000000000e+00,1.948948558094798500e-08,4.456228808180640044e-08,2.994756460189819336e+00,-1.646465994417667389e-02,-1.921556703746318817e-02
4.159000000000000000e+03,1.380000019073486328e+01,2.000000000000000000e+00,1.963232953983151674e-08,4.521533725210247212e-08,2.994757175445556641e+00,-1.646543294191360474e-02,-1.921611465513706207e-02
4.160000000000000000e+03,1.389999961853027344e+01,2.000000000000000000e+00,1.977517172235820908e-08,4.587314350601445767e-08,2.994757652282714844e+00,-1.646616123616695404e-02,-1.921625062823295593e-02
4.161000000000000000e+03,1.400000000000000000e+01,2.000000000000000000e+00,1.991801568124174082e-08,4.653571394896971469e-08,2.994758129119873047e+00,-1.646684855222702026e-02,-1.921674609184265137e-02
4.162000000000000000e+03,1.410000038146972656e+01,2.000000000000000000e+00,2.006085786376843316e-08,4.720304147554088559e-08,2.994758605957031250e+00,-1.646749861538410187e-02,-1.921702735126018524e-02
4.163000000000000000e+03,1.419999980926513672e+01,2.000000000000000000e+00,2.020370004629512550e-08,4.787512253301429155e-08,2.994758844375610352e+00,-1.646811328828334808e-02,-1.921709813177585602e-02
4.164000000000000000e+03,1.430000019073486328e+01,2.000000000000000000e+00,2.034654400517865724e-08,4.855197133224464778e-08,2.994759321212768555e+00,-1.646869815886020660e-02,-1.921753399074077606e-02
4.165000000000000000e+03,1.439999961853027344e+01,2.000000000000000000e+00,2.048938618770534958e-08,4.923357010966356029e-08,2.994759559631347656e+00,-1.646925508975982666e-02,-1.921757124364376068e-02
4.166000000000000000e+03,1.450000000000000000e+01,2.000000000000000000e+00,2.063222837023204193e-08,4.991993662883942307e-08,2.994759798049926758e+00,-1.646979153156280518e-02,-1.921798288822174072e-02
4.167000000000000000e+03,1.460000038146972656e+01,2.000000000000000000e+00,2.077507232911557367e-08,5.061106023163119971e-08,2.994760036468505859e+00,-1.647031120955944061e-02,-1.921819522976875305e-02
4.168000000000000000e+03,1.469999980926513672e+01,2.000000000000000000e+00,2.091791451164226601e-08,5.130693736532521143e-08,2.994760513305664062e+00,-1.647081971168518066e-02,-1.921821013092994690e-02
4.169000000000000000e+03,1.480000019073486328e+01,2.000000000000000000e+00,2.106075847052579775e-08,5.200758224077617342e-08,2.994760513305664062e+00,-1.647132262587547302e-02,-1.921861059963703156e-02
4.170000000000000000e+03,1.489999961853027344e+01,2.000000000000000000e+00,2.120360065305249009e-08,5.271297709441569168e-08,2.994760751724243164e+00,-1.647182740271091461e-02,-1.921863108873367310e-02
4.171000000000000000e+03,1.500000000000000000e+01,2.000000000000000000e+00,2.134644461193602183e-08,5.342313613709848141e-08,2.994760990142822266e+00,-1.647234149277210236e-02,-1.921904832124710083e-02
4.172000000000000000e+03,1.510000038146972656e+01,2.000000000000000000e+00,2.148928679446271417e-08,5.413805581611086382e-08,2.994761228561401367e+00,-1.647287234663963318e-02,-1.921928860247135162e-02
4.173000000000000000e+03,1.519999980926513672e+01,2.000000000000000000e+00,2.163212897698940651e-08,5.485772902602548129e-08,2.994761466979980469e+00,-1.647343300282955170e-02,-1.921936124563217163e-02
4.174000000000000000e+03,1.530000019073486328e+01,2.000000000000000000e+00,2.177497293587293825e-08,5.558216642498337023e-08,2.994761705398559570e+00,-1.647402904927730560e-02,-1.921985112130641937e-02
4.175000000000000000e+03,1.539999961853027344e+01,2.000000000000000000e+00,2.191781511839963059e-08,5.631135735484349425e-08,2.994761943817138672e+00,-1.647467538714408875e-02,-1.921999640762805939e-02
4.176000000000000000e+03,1.550000000000000000e+01,2.000000000000000000e+00,2.206065907728316233e-08,5.704531247374688974e-08,2.994762420654296875e+00,-1.647538319230079651e-02,-1.922057755291461945e-02
4.177000000000000000e+03,1.560000038146972656e+01,2.000000000000000000e+00,2.220350303616669407e-08,5.778402822897987789e-08,2.994762659072875977e+00,-1.647616922855377197e-02,-1.922103017568588257e-02
4.178000000000000000e+03,1.569999980926513672e+01,2.000000000000000000e+00,2.234634521869338641e-08,5.852749396240142232e-08,2.994763135910034180e+00,-1.647704653441905975e-02,-1.922136731445789337e-02
4.179000000000000000e+03,1.580000019073486328e+01,2.000000000000000000e+00,2.248918917757691815e-08,5.927572743757991702e-08,2.994763612747192383e+00,-1.647803373634815216e-02,-1.922218315303325653e-02
4.180000000000000000e+03,1.589999961853027344e+01,2.000000000000000000e+00,2.263203136010361050e-08,6.002871089094696799e-08,2.994764328002929688e+00,-1.647914946079254150e-02,-1.922272518277168274e-02
4.181000000000000000e+03,1.600000000000000000e+01,2.000000000000000000e+00,2.277487531898714224e-08,6.078646208607096924e-08,2.994765043258666992e+00,-1.648041792213916779e-02,-1.922378316521644592e-02
4.182000000000000000e+03,1.610000038146972656e+01,2.000000000000000000e+00,2.291771927787067398e-08,6.154897391752456315e-08,2.994765996932983398e+00,-1.648186147212982178e-02,-1.922480389475822449e-02
4.183000000000000000e+03,1.620000076293945312e+01,2.000000000000000000e+00,2.306056323675420572e-08,6.231624638530774973e-08,2.994766950607299805e+00,-1.648350432515144348e-02,-1.922600902616977692e-02
4.184000000000000000e+03,1.629999923706054688e+01,2.000000000000000000e+00,2.320340364292405866e-08,6.308825817313845619e-08,2.994768142700195312e+00,-1.648537255823612213e-02,-1.922704093158245087e-02
4.185000000000000000e+03,1.639999961853027344e+01,2.000000000000000000e+00,2.334624937816442980e-08,6.386504480815347051e-08,2.994769811630249023e+00,-1.648749969899654388e-02,-1.922908984124660492e-02
4.186000000000000000e+03,1.650000000000000000e+01,2.000000000000000000e+00,2.348909333704796154e-08,6.464659207949807751e-08,2.994771480560302734e+00,-1.648991554975509644e-02,-1.923104189336299896e-02
4.187000000000000000e+03,1.660000038146972656e+01,2.000000000000000000e+00,2.363193729593149328e-08,6.543289998717227718e-08,2.994773626327514648e+00,-1.649264991283416748e-02,-1.923332177102565765e-02
4.188000000000000000e+03,1.670000076293945312e+01,2.000000000000000000e+00,2.377478125481502502e-08,6.622396142574871192e-08,2.994776010513305664e+00,-1.649573817849159241e-02,-1.923598162829875946e-02
4.189000000000000000e+03,1.679999923706054688e+01,2.000000000000000000e+00,2.391762343734171736e-08,6.701976928980002413e-08,2.994778871536254883e+00,-1.649921201169490814e-02,-1.923868991434574127e-02
4.190000000000000000e+03,1.689999961853027344e+01,2.000000000000000000e+00,2.406046917258208850e-08,6.782035200103564421e-08,2.994782209396362305e+00,-1.650310307741165161e-02,-1.924265921115875244e-02
4.191000000000000000e+03,1.700000000000000000e+01,2.000000000000000000e+00,2.420331490782245965e-08,6.862568824317349936e-08,2.994786024093627930e+00,-1.650743931531906128e-02,-1.924680173397064209e-02
4.192000000000000000e+03,1.710000038146972656e+01,2.000000000000000000e+00,2.434615886670599139e-08,6.943579222706830478e-08,2.994790315628051758e+00,-1.651224493980407715e-02,-1.925157383084297180e-02
4.193000000000000000e+03,1.720000076293945312e+01,2.000000000000000000e+00,2.448900460194636253e-08,7.025064974186534528e-08,2.994795560836791992e+00,-1.651753671467304230e-02,-1.925705373287200928e-02
4.194000000000000000e+03,1.729999923706054688e+01,2.000000000000000000e+00,2.463184856082989427e-08,7.107024657670990564e-08,2.994801282882690430e+00,-1.652332022786140442e-02,-1.926293596625328064e-02
4.195000000000000000e+03,1.739999961853027344e+01,2.000000000000000000e+00,2.477469607242710481e-08,7.189462536416613148e-08,2.994807958602905273e+00,-1.652958616614341736e-02,-1.927046291530132294e-02
4.196000000000000000e+03,1.750000000000000000e+01,2.000000000000000000e+00,2.491754180766747595e-08,7.272375768252459238e-08,2.994815587997436523e+00,-1.653630658984184265e-02,-1.927856914699077606e-02
4.197000000000000000e+03,1.760000038146972656e+01,2.000000000000000000e+00,2.506038931926468649e-08,7.355765063721264596e-08,2.994824171066284180e+00,-1.654342934489250183e-02,-1.928772591054439545e-02
4.198000000000000000e+03,1.770000076293945312e+01,2.000000000000000000e+00,2.520323860721873643e-08,7.439630422823029221e-08,2.994833707809448242e+00,-1.655086874961853027e-02,-1.929802261292934418e-02
4.199000000000000000e+03,1.779999923706054688e+01,2.000000000000000000e+00,2.534608434245910757e-08,7.523969713929545833e-08,2.994844198226928711e+00,-1.655849814414978027e-02,-1.930915378034114838e-02
4.200000000000000000e+03,1.789999961853027344e+01,2.000000000000000000e+00,2.548893363041315752e-08,7.608786489754493232e-08,2.994856119155883789e+00,-1.656614802777767181e-02,-1.932233758270740509e-02
4.201000000000000000e+03,1.800000000000000000e+01,2.000000000000000000e+00,2.563178291836720746e-08,7.694078618669664138e-08,2.994868993759155273e+00,-1.657358556985855103e-02,-1.933647133409976959e-02
4.202000000000000000e+03,1.810000038146972656e+01,2.000000000000000000e+00,2.577463398267809680e-08,7.779847521760530071e-08,2.994882822036743164e+00,-1.658051833510398865e-02,-1.935195736587047577e-02
4.203000000000000000e+03,1.820000076293945312e+01,2.000000000000000000e+00,2.591748682334582554e-08,7.866091777941619512e-08,2.994897842407226562e+00,-1.658657006919384003e-02,-1.936876960098743439e-02
4.204000000000000000e+03,1.829999923706054688e+01,2.000000000000000000e+00,2.606033611129987548e-08,7.952809966127460939e-08,2.994913816452026367e+00,-1.659129373729228973e-02,-1.938644610345363617e-02
4.205000000000000000e+03,1.839999961853027344e+01,2.000000000000000000e+00,2.620318895196760423e-08,8.040006349574468913e-08,2.994930744171142578e+00,-1.659414730966091156e-02,-1.940599083900451660e-02
4.206000000000000000e+03,1.850000000000000000e+01,2.000000000000000000e+00,2.634604356899217237e-08,8.127678086111700395e-08,2.994947910308837891e+00,-1.659451052546501160e-02,-1.942600682377815247e-02
4.207000000000000000e+03,1.860000038146972656e+01,2.000000000000000000e+00,2.648889818601674051e-08,8.215825886281891144e-08,2.994965791702270508e+00,-1.659169048070907593e-02,-1.944651827216148376e-02
4.208000000000000000e+03,1.870000076293945312e+01,2.000000000000000000e+00,2.663175457939814805e-08,8.304449039542305400e-08,2.994983434677124023e+00,-1.658493094146251678e-02,-1.946702972054481506e-02
4.209000000000000000e+03,1.879999923706054688e+01,2.000000000000000000e+00,2.677460742006587679e-08,8.393546835350207402e-08,2.995000600814819336e+00,-1.657346263527870178e-02,-1.948650740087032318e-02
4.210000000000000000e+03,1.889999961853027344e+01,2.000000000000000000e+00,2.691746558980412374e-08,8.483122115876540192e-08,2.995017051696777344e+00,-1.655652746558189392e-02,-1.950527168810367584e-02
4.211000000000000000e+03,1.900000000000000000e+01,2.000000000000000000e+00,2.706032198318553128e-08,8.573173460035832250e-08,2.995032310485839844e+00,-1.653345488011837006e-02,-1.952116191387176514e-02
4.212000000000000000e+03,1.910000038146972656e+01,2.000000000000000000e+00,2.720318015292377822e-08,8.663700867828083574e-08,2.995045900344848633e+00,-1.650373265147209167e-02,-1.953337155282497406e-02
4.213000000000000000e+03,1.920000076293945312e+01,2.000000000000000000e+00,2.734603654630518577e-08,8.754704339253294165e-08,2.995057582855224609e+00,-1.646708324551582336e-02,-1.954054832458496094e-02
4.214000000000000000e+03,1.929999923706054688e+01,2.000000000000000000e+00,2.748889116332975391e-08,8.846182453225992504e-08,2.995066642761230469e+00,-1.642355136573314667e-02,-1.954085007309913635e-02
4.215000000000000000e+03,1.939999961853027344e+01,2.000000000000000000e+00,2.763174933306800085e-08,8.938138051917121629e-08,2.995073556900024414e+00,-1.637357100844383240e-02,-1.953392289578914642e-02
4.216000000000000000e+03,1.950000000000000000e+01,2.000000000000000000e+00,2.777460572644940839e-08,9.030570424783945782e-08,2.995077848434448242e+00,-1.631801575422286987e-02,-1.951715722680091858e-02
4.217000000000000000e+03,1.960000038146972656e+01,2.000000000000000000e+00,2.791746034347397654e-08,9.123479571826464962e-08,2.995079994201660156e+00,-1.625820063054561615e-02,-1.948963850736618042e-02
4.218000000000000000e+03,1.970000076293945312e+01,2.000000000000000000e+00,2.806031673685538408e-08,9.216864782501943409e-08,2.995080471038818359e+00,-1.619584299623966217e-02,-1.945034414529800415e-02
4.219000000000000000e+03,1.979999923706054688e+01,2.000000000000000000e+00,2.820316780116627342e-08,9.310725346267645364e-08,2.995079755783081055e+00,-1.613295637071132660e-02,-1.939824968576431274e-02
4.220000000000000000e+03,1.989999961853027344e+01,2.000000000000000000e+00,2.834602064183400216e-08,9.405064105294513865e-08,2.995078802108764648e+00,-1.607172004878520966e-02,-1.933434419333934784e-02
4.221000000000000000e+03,2.000000000000000000e+01,2.000000000000000000e+00,2.848887170614489150e-08,9.499880349039813154e-08,2.995078563690185547e+00,-1.601423881947994232e-02,-1.925780437886714935e-02
4.222000000000000000e+03,0.000000000000000000e+00,2.099999904632568359e+00,1.297461014975699520e-37,3.443902572146350999e-38,2.729263782501220703e+00,8.187791109085083008e-01,-7.185745239257812500e-02
4.223000000000000000e+03,1.000000014901161194e-01,2.099999904632568359e+00,1.182680897660048913e-10,-8.896636899402565746e-12,2.709953069686889648e+00,7.544100880622863770e-01,-1.053113788366317749e-01
4.224000000000000000e+03,2.000000029802322388e-01,2.099999904632568359e+00,2.382876396200828140e-10,-1.050074003444700921e-11,2.731037378311157227e+00,7.020909190177917480e-01,-8.078347891569137573e-02
4.225000000000000000e+03,3.000000119209289551e-01,2.099999904632568359e+00,3.600457987307237318e-10,-5.095079306377536810e-12,2.751956939697265625e+00,6.501186490058898926e-01,-5.944177135825157166e-02
4.226000000000000000e+03,4.000000059604644775e-01,2.099999904632568359e+00,4.835137290548630062e-10,7.039952822085471240e-12,2.772498369216918945e+00,5.989041328430175781e-01,-4.122897610068321228e-02
4.227000000000000000e+03,5.000000000000000000e-01,2.099999904632568359e+00,6.086467996269107061e-10,2.563074232020401411e-11,2.792448759078979492e+00,5.488479733467102051e-01,-2.603251673281192780e-02
4.228000000000000000e+03,6.000000238418579102e-01,2.099999904632568359e+00,7.353853637148688449e-10,5.041467243671604592e-11,2.811605691909790039e+00,5.003238320350646973e-01,-1.368837244808673859e-02
4.229000000000000000e+03,6.999999880790710449e-01,2.099999904632568359e+00,8.636560355768096997e-10,8.114386940150097871e-11,2.829785108566284180e+00,4.536638557910919189e-01,-3.988242708146572113e-03
4.230000000000000000e+03,8.000000119209289551e-01,2.099999904632568359e+00,9.933743827517105274e-10,1.175884528636927939e-10,2.846829652786254883e+00,4.091480970382690430e-01,3.310731146484613419e-03
4.231000000000000000e+03,8.999999761581420898e-01,2.099999904632568359e+00,1.124446535882839271e-09,1.595387710828788386e-10,2.862613439559936523e+00,3.669977784156799316e-01,8.475007489323616028e-03
4.232000000000000000e+03,1.000000000000000000e+00,2.099999904632568359e+00,1.256771908764164891e-09,2.068071408567462299e-10,2.877045392990112305e+00,3.273726403713226318e-01,1.178299821913242340e-02
4.233000000000000000e+03,1.100000023841857910e+00,2.099999904632568359e+00,1.390246140431372623e-09,2.592283054880795135e-10,2.890070676803588867e+00,2.903724312782287598e-01,1.351438462734222412e-02
4.234000000000000000e+03,1.200000047683715820e+00,2.099999904632568359e+00,1.524763093563308303e-09,3.166596429515777800e-10,2.901667594909667969e+00,2.560410797595977783e-01,1.394048146903514862e-02
4.235000000000000000e+03,1.299999952316284180e+00,2.099999904632568359e+00,1.660216963905725152e-09,3.789800695486178483e-10,2.911846160888671875e+00,2.243731915950775146e-01,1.331668905913829803e-02
4.236000000000000000e+03,1.399999976158142090e+00,2.099999904632568359e+00,1.796505055828845343e-09,4.460894431623785295e-10,2.920644044876098633e+00,1.953213512897491455e-01,1.187673304229974747e-02
4.237000000000000000e+03,1.500000000000000000e+00,2.099999904632568359e+00,1.933527782327360001e-09,5.179062179117011055e-10,2.928119659423828125e+00,1.688045859336853027e-01,9.829358197748661041e-03
4.238000000000000000e+03,1.600000023841857910e+00,2.099999904632568359e+00,2.071191440577990761e-09,5.943660563723085488e-10,2.934349775314331055e+00,1.447159051895141602e-01,7.356313057243824005e-03
4.239000000000000000e+03,1.700000047683715820e+00,2.099999904632568359e+00,2.209407767850279924e-09,6.754197756642099648e-10,2.939422369003295898e+00,1.229297146201133728e-01,4.612261895090341568e-03
4.240000000000000000e+03,1.799999952316284180e+00,2.099999904632568359e+00,2.348095273774220004e-09,7.610310159833488797e-10,2.943433523178100586e+00,1.033080965280532837e-01,1.725741312839090824e-03
4.241000000000000000e+03,1.899999976158142090e+00,2.099999904632568359e+00,2.487179795451766040e-09,8.511751858897298462e-10,2.946482896804809570e+00,8.570619672536849976e-02,-1.199189806357026100e-03
4.242000000000000000e+03,2.000000000000000000e+00,2.099999904632568359e+00,2.626592943144601122e-09,9.458366312387056496e-10,2.948671102523803711e+00,6.997670233249664307e-02,-4.080355167388916016e-03
4.243000000000000000e+03,2.099999904632568359e+00,2.099999904632568359e+00,2.766274098675580717e-09,1.045007413935650220e-09,2.950096607208251953e+00,5.597324669361114502e-02,-6.855095736682415009e-03
4.244000000000000000e+03,2.200000047683715820e+00,2.099999904632568359e+00,2.906168861116498192e-09,1.148686257224085239e-09,2.950853586196899414e+00,4.355292767286300659e-02,-9.477606043219566345e-03
4.245000000000000000e+03,2.299999952316284180e+00,2.099999904632568359e+00,3.046228602698874965e-09,1.256876158706177193e-09,2.951031208038330078e+00,3.257841244339942932e-02,-1.191595662385225296e-02
4.246000000000000000e+03,2.400000095367431641e+00,2.099999904632568359e+00,3.186411579036985131e-09,1.369584667898493535e-09,2.950713157653808594e+00,2.291897311806678772e-02,-1.415028702467679977e-02
4.247000000000000000e+03,2.500000000000000000e+00,2.099999904632568359e+00,3.326680042547991434e-09,1.486821221696743578e-09,2.949975252151489258e+00,1.445155870169401169e-02,-1.616982929408550262e-02
4.248000000000000000e+03,2.599999904632568359e+00,2.099999904632568359e+00,3.467002240853389594e-09,1.608598254598803123e-09,2.948887348175048828e+00,7.061038631945848465e-03,-1.797167211771011353e-02
4.249000000000000000e+03,2.700000047683715820e+00,2.099999904632568359e+00,3.607351084511378758e-09,1.734929311325572598e-09,2.947512149810791016e+00,6.404573796316981316e-04,-1.955857500433921814e-02
4.250000000000000000e+03,2.799999952316284180e+00,2.099999904632568359e+00,3.747702148615417173e-09,1.865827936597952430e-09,2.945905447006225586e+00,-4.908987786620855331e-03,-2.093751914799213409e-02
4.251000000000000000e+03,2.900000095367431641e+00,2.099999904632568359e+00,3.888036559374086210e-09,2.001309340471379983e-09,2.944117069244384766e+00,-9.678263217210769653e-03,-2.211898565292358398e-02
4.252000000000000000e+03,3.000000000000000000e+00,2.099999904632568359e+00,4.028337219352806642e-09,2.141387289711360609e-09,2.942190647125244141e+00,-1.375069469213485718e-02,-2.311523258686065674e-02
4.253000000000000000e+03,3.099999904632568359e+00,2.099999904632568359e+00,4.168590805875282967e-09,2.286076661306424285e-09,2.940164327621459961e+00,-1.720244064927101135e-02,-2.394021674990653992e-02
4.254000000000000000e+03,3.200000047683715820e+00,2.099999904632568359e+00,4.308786216711268935e-09,2.435391666111286213e-09,2.938071489334106445e+00,-2.010286413133144379e-02,-2.460847422480583191e-02
4.255000000000000000e+03,3.299999952316284180e+00,2.099999904632568359e+00,4.448914570076567543e-09,2.589344516579217270e-09,2.935940265655517578e+00,-2.251496911048889160e-02,-2.513461560010910034e-02
4.256000000000000000e+03,3.400000095367431641e+00,2.099999904632568359e+00,4.588969204633031040e-09,2.747948757431117883e-09,2.933795213699340820e+00,-2.449588105082511902e-02,-2.553343027830123901e-02
4.257000000000000000e+03,3.500000000000000000e+00,2.099999904632568359e+00,4.728944791310141227e-09,2.911215490897234304e-09,2.931657075881958008e+00,-2.609724737703800201e-02,-2.581888251006603241e-02
4.258000000000000000e+03,3.599999904632568359e+00,2.099999904632568359e+00,4.868837333305009452e-09,3.079155819207812783e-09,2.929542541503906250e+00,-2.736569195985794067e-02,-2.600462175905704498e-02
4.259000000000000000e+03,3.700000047683715820e+00,2.099999904632568359e+00,5.008645498350006164e-09,3.251780622548494648e-09,2.927466392517089844e+00,-2.834320813417434692e-02,-2.610336989164352417e-02
4.260000000000000000e+03,3.799999952316284180e+00,2.099999904632568359e+00,5.148367510088291965e-09,3.429098338614267050e-09,2.925440311431884766e+00,-2.906753867864608765e-02,-2.612683176994323730e-02
4.261000000000000000e+03,3.900000095367431641e+00,2.099999904632568359e+00,5.288003368519866854e-09,3.611118515323141764e-09,2.923473358154296875e+00,-2.957254834473133087e-02,-2.608612552285194397e-02
4.262000000000000000e+03,4.000000000000000000e+00,2.099999904632568359e+00,5.427552629555520980e-09,3.797847814013266543e-09,2.921572923660278320e+00,-2.988855913281440735e-02,-2.599104866385459900e-02
4.263000000000000000e+03,4.099999904632568359e+00,2.099999904632568359e+00,5.567017069552093744e-09,3.989293784201208837e-09,2.919744968414306641e+00,-3.004265576601028442e-02,-2.585080638527870178e-02
4.264000000000000000e+03,4.199999809265136719e+00,2.099999904632568359e+00,5.706398464866424547e-09,4.185462643135906546e-09,2.917993307113647461e+00,-3.005899116396903992e-02,-2.567350864410400391e-02
4.265000000000000000e+03,4.300000190734863281e+00,2.099999904632568359e+00,5.845699480033772488e-09,4.386361496244717273e-09,2.916320562362670898e+00,-2.995903976261615753e-02,-2.546653151512145996e-02
4.266000000000000000e+03,4.400000095367431641e+00,2.099999904632568359e+00,5.984921003232557268e-09,4.591993452152109967e-09,2.914728879928588867e+00,-2.976186573505401611e-02,-2.523607760667800903e-02
4.267000000000000000e+03,4.500000000000000000e+00,2.099999904632568359e+00,6.124066587176457688e-09,4.802363839928602829e-09,2.913218736648559570e+00,-2.948432415723800659e-02,-2.498812228441238403e-02
4.268000000000000000e+03,4.599999904632568359e+00,2.099999904632568359e+00,6.263139784579152547e-09,5.017476212287874660e-09,2.911789894104003906e+00,-2.914129383862018585e-02,-2.472757175564765930e-02
4.269000000000000000e+03,4.699999809265136719e+00,2.099999904632568359e+00,6.402142371797481246e-09,5.237335010122023959e-09,2.910441875457763672e+00,-2.874585986137390137e-02,-2.445876225829124451e-02
4.270000000000000000e+03,4.800000190734863281e+00,2.099999904632568359e+00,6.541079677901961986e-09,5.461943786144729529e-09,2.909173250198364258e+00,-2.830948308110237122e-02,-2.418552152812480927e-02
4.271000000000000000e+03,4.900000095367431641e+00,2.099999904632568359e+00,6.679952591071014467e-09,5.691303428534411069e-09,2.907982110977172852e+00,-2.784218452870845795e-02,-2.391077950596809387e-02
4.272000000000000000e+03,5.000000000000000000e+00,2.099999904632568359e+00,6.818765552196737190e-09,5.925417045915537528e-09,2.906866312026977539e+00,-2.735265903174877167e-02,-2.363750711083412170e-02
4.273000000000000000e+03,5.099999904632568359e+00,2.099999904632568359e+00,6.957521225814389254e-09,6.164286414644948309e-09,2.905823707580566406e+00,-2.684843353927135468e-02,-2.336788550019264221e-02
4.274000000000000000e+03,5.199999809265136719e+00,2.099999904632568359e+00,7.096223608726859311e-09,6.407913755168692660e-09,2.904851198196411133e+00,-2.633598446846008301e-02,-2.310378663241863251e-02
4.275000000000000000e+03,5.300000190734863281e+00,2.099999904632568359e+00,7.234876253647826161e-09,6.656301732022029682e-09,2.903946399688720703e+00,-2.582084387540817261e-02,-2.284681797027587891e-02
4.276000000000000000e+03,5.400000095367431641e+00,2.099999904632568359e+00,7.373480936934129204e-09,6.909449012937329826e-09,2.903105974197387695e+00,-2.530771493911743164e-02,-2.259792760014533997e-02
4.277000000000000000e+03,5.500000000000000000e+00,2.099999904632568359e+00,7.512040767210237391e-09,7.167357818360642341e-09,2.902326822280883789e+00,-2.480054087936878204e-02,-2.235832996666431427e-02
4.278000000000000000e+03,5.599999904632568359e+00,2.099999904632568359e+00,7.650560185368249222e-09,7.430028592381177077e-09,2.901606321334838867e+00,-2.430260926485061646e-02,-2.212864346802234650e-02
4.279000000000000000e+03,5.699999809265136719e+00,2.099999904632568359e+00,7.789039635497374547e-09,7.697463111355773435e-09,2.900940895080566406e+00,-2.381662093102931976e-02,-2.190937101840972900e-02
4.280000000000000000e+03,5.800000190734863281e+00,2.099999904632568359e+00,7.927484446668131568e-09,7.969661375284431415e-09,2.900327920913696289e+00,-2.334475889801979065e-02,-2.170092426240444183e-02
4.281000000000000000e+03,5.900000095367431641e+00,2.099999904632568359e+00,8.065895507058939984e-09,8.246622940077941166e-09,2.899764060974121094e+00,-2.288875542581081390e-02,-2.150321006774902344e-02
4.282000000000000000e+03,6.000000000000000000e+00,2.099999904632568359e+00,8.204275481205058895e-09,8.528348693914722389e-09,2.899246454238891602e+00,-2.244993858039379120e-02,-2.131654322147369385e-02
4.283000000000000000e+03,6.099999904632568359e+00,2.099999904632568359e+00,8.342627033641747403e-09,8.814838636794775084e-09,2.898772478103637695e+00,-2.202928997576236725e-02,-2.114077284932136536e-02
4.284000000000000000e+03,6.199999809265136719e+00,2.099999904632568359e+00,8.480951940725844906e-09,9.106093656896518951e-09,2.898338794708251953e+00,-2.162749134004116058e-02,-2.097574807703495026e-02
4.285000000000000000e+03,6.300000190734863281e+00,2.099999904632568359e+00,8.619252866992610507e-09,9.402113754219953989e-09,2.897943258285522461e+00,-2.124495804309844971e-02,-2.082132734358310699e-02
4.286000000000000000e+03,6.400000095367431641e+00,2.099999904632568359e+00,8.757531588798883604e-09,9.702898040586660500e-09,2.897583007812500000e+00,-2.088189125061035156e-02,-2.067695558071136475e-02
4.287000000000000000e+03,6.500000000000000000e+00,2.099999904632568359e+00,8.895788994323083898e-09,1.000844651599663848e-08,2.897255659103393555e+00,-2.053829468786716461e-02,-2.054256945848464966e-02
4.288000000000000000e+03,6.599999904632568359e+00,2.099999904632568359e+00,9.034028636278890190e-09,1.031875918044988794e-08,2.896958589553833008e+00,-2.021400816738605499e-02,-2.041770890355110168e-02
4.289000000000000000e+03,6.699999809265136719e+00,2.099999904632568359e+00,9.172250514666302479e-09,1.063383603394640886e-08,2.896689891815185547e+00,-1.990874111652374268e-02,-2.030197903513908386e-02
4.290000000000000000e+03,6.800000190734863281e+00,2.099999904632568359e+00,9.310457294020579866e-09,1.095367885284304066e-08,2.896447181701660156e+00,-1.962208747863769531e-02,-2.019504643976688385e-02
4.291000000000000000e+03,6.900000095367431641e+00,2.099999904632568359e+00,9.448648974341722351e-09,1.127828408442610453e-08,2.896228551864624023e+00,-1.935355551540851593e-02,-2.009621448814868927e-02
4.292000000000000000e+03,7.000000000000000000e+00,2.099999904632568359e+00,9.586828220164989034e-09,1.160765261687402017e-08,2.896032094955444336e+00,-1.910257153213024139e-02,-2.000531554222106934e-02
4.293000000000000000e+03,7.099999904632568359e+00,2.099999904632568359e+00,9.724995919668799615e-09,1.194178533836520728e-08,2.895855903625488281e+00,-1.886851154267787933e-02,-1.992182806134223938e-02
4.294000000000000000e+03,7.199999809265136719e+00,2.099999904632568359e+00,9.863152072853154095e-09,1.228068136072124616e-08,2.895698547363281250e+00,-1.865070499479770660e-02,-1.984531804919242859e-02
4.295000000000000000e+03,7.300000190734863281e+00,2.099999904632568359e+00,1.000130023243173127e-08,1.262434246029897622e-08,2.895558118820190430e+00,-1.844844780862331390e-02,-1.977544464170932770e-02
4.296000000000000000e+03,7.400000095367431641e+00,2.099999904632568359e+00,1.013943862204769175e-08,1.297276419620629895e-08,2.895433425903320312e+00,-1.826102286577224731e-02,-1.971152238547801971e-02
4.297000000000000000e+03,7.500000000000000000e+00,2.099999904632568359e+00,1.027756901805787493e-08,1.332594923297847345e-08,2.895322799682617188e+00,-1.808769628405570984e-02,-1.965341158211231232e-02
4.298000000000000000e+03,7.599999904632568359e+00,2.099999904632568359e+00,1.041569319681912020e-08,1.368389668243708002e-08,2.895225286483764648e+00,-1.792772673070430756e-02,-1.960063539445400238e-02
4.299000000000000000e+03,7.699999809265136719e+00,2.099999904632568359e+00,1.055381115833142758e-08,1.404660654458211866e-08,2.895139455795288086e+00,-1.778038404881954193e-02,-1.955281756818294525e-02
4.300000000000000000e+03,7.800000190734863281e+00,2.099999904632568359e+00,1.069192379077321675e-08,1.441407970759200907e-08,2.895064353942871094e+00,-1.764494180679321289e-02,-1.950967870652675629e-02
4.301000000000000000e+03,7.900000095367431641e+00,2.099999904632568359e+00,1.083003109414448772e-08,1.478631350693149216e-08,2.894998788833618164e+00,-1.752069033682346344e-02,-1.947060786187648773e-02
4.302000000000000000e+03,8.000000000000000000e+00,2.099999904632568359e+00,1.096813395662366020e-08,1.516330883077898761e-08,2.894941806793212891e+00,-1.740692928433418274e-02,-1.943554729223251343e-02
4.303000000000000000e+03,8.100000381469726562e+00,2.099999904632568359e+00,1.110623326638915387e-08,1.554506745549133484e-08,2.894892692565917969e+00,-1.730298809707164764e-02,-1.940418966114521027e-02
4.304000000000000000e+03,8.199999809265136719e+00,2.099999904632568359e+00,1.124432902344096874e-08,1.593158494017643534e-08,2.894850730895996094e+00,-1.720821298658847809e-02,-1.937587372958660126e-02
4.305000000000000000e+03,8.300000190734863281e+00,2.099999904632568359e+00,1.138242211595752451e-08,1.632286661390480731e-08,2.894814968109130859e+00,-1.712197624146938324e-02,-1.935096457600593567e-02
4.306000000000000000e+03,8.399999618530273438e+00,2.099999904632568359e+00,1.152051165576040148e-08,1.671890537124909315e-08,2.894784688949584961e+00,-1.704367622733116150e-02,-1.932846941053867340e-02
4.307000000000000000e+03,8.500000000000000000e+00,2.099999904632568359e+00,1.165860030738485875e-08,1.711970831763665046e-08,2.894759416580200195e+00,-1.697273924946784973e-02,-1.930887997150421143e-02
4.308000000000000000e+03,8.600000381469726562e+00,2.099999904632568359e+00,1.179668718265247662e-08,1.752527190035380045e-08,2.894738674163818359e+00,-1.690861582756042480e-02,-1.929141953587532043e-02
4.309000000000000000e+03,8.699999809265136719e+00,2.099999904632568359e+00,1.193477139338483539e-08,1.793559256668686430e-08,2.894721746444702148e+00,-1.685078814625740051e-02,-1.927587576210498810e-02
4.310000000000000000e+03,8.800000190734863281e+00,2.099999904632568359e+00,1.207285471593877446e-08,1.835067742206319963e-08,2.894708395004272461e+00,-1.679876446723937988e-02,-1.926260441541671753e-02
4.311000000000000000e+03,8.899999618530273438e+00,2.099999904632568359e+00,1.221093626213587413e-08,1.877051936105544883e-08,2.894697904586791992e+00,-1.675208099186420441e-02,-1.925069093704223633e-02
4.312000000000000000e+03,9.000000000000000000e+00,2.099999904632568359e+00,1.234901780833297380e-08,1.919512548909096950e-08,2.894690275192260742e+00,-1.671029999852180481e-02,-1.924069598317146301e-02
4.313000000000000000e+03,9.100000381469726562e+00,2.099999904632568359e+00,1.248709846635165377e-08,1.962449225345608284e-08,2.894684791564941406e+00,-1.667301356792449951e-02,-1.923191733658313751e-02
4.314000000000000000e+03,9.199999809265136719e+00,2.099999904632568359e+00,1.262517734801349434e-08,2.005861432508027065e-08,2.894681215286254883e+00,-1.663983799517154694e-02,-1.922421343624591827e-02
4.315000000000000000e+03,9.300000190734863281e+00,2.099999904632568359e+00,1.276325711785375461e-08,2.049749880939089053e-08,2.894679546356201172e+00,-1.661041006445884705e-02,-1.921799965202808380e-02
4.316000000000000000e+03,9.399999618530273438e+00,2.099999904632568359e+00,1.290133511133717548e-08,2.094114215367426368e-08,2.894679307937622070e+00,-1.658439822494983673e-02,-1.921242475509643555e-02
4.317000000000000000e+03,9.500000000000000000e+00,2.099999904632568359e+00,1.303941399299901605e-08,2.138954791064406891e-08,2.894680261611938477e+00,-1.656149141490459442e-02,-1.920810900628566742e-02
4.318000000000000000e+03,9.600000381469726562e+00,2.099999904632568359e+00,1.317749287466085661e-08,2.184271252758662740e-08,2.894682168960571289e+00,-1.654139906167984009e-02,-1.920440420508384705e-02
4.319000000000000000e+03,9.699999809265136719e+00,2.099999904632568359e+00,1.331557086814427748e-08,2.230063422814509977e-08,2.894685029983520508e+00,-1.652385480701923370e-02,-1.920121721923351288e-02
4.320000000000000000e+03,9.800000190734863281e+00,2.099999904632568359e+00,1.345364886162769835e-08,2.276331834139000421e-08,2.894688367843627930e+00,-1.650860905647277832e-02,-1.919901371002197266e-02
4.321000000000000000e+03,9.899999618530273438e+00,2.099999904632568359e+00,1.359172685511111922e-08,2.323075776189398312e-08,2.894692420959472656e+00,-1.649543456733226776e-02,-1.919698715209960938e-02
4.322000000000000000e+03,1.000000000000000000e+01,2.099999904632568359e+00,1.372980484859454009e-08,2.370296137144123350e-08,2.894696950912475586e+00,-1.648412086069583893e-02,-1.919579878449440002e-02
4.323000000000000000e+03,1.010000038146972656e+01,2.099999904632568359e+00,1.386788373025638066e-08,2.417992561731807655e-08,2.894701957702636719e+00,-1.647447235882282257e-02,-1.919484324753284454e-02
4.324000000000000000e+03,1.019999980926513672e+01,2.099999904632568359e+00,1.400596172373980153e-08,2.466164339409715467e-08,2.894706964492797852e+00,-1.646631397306919098e-02,-1.919404603540897369e-02
4.325000000000000000e+03,1.030000019073486328e+01,2.099999904632568359e+00,1.414404060540164210e-08,2.514812535991950426e-08,2.894712209701538086e+00,-1.645948365330696106e-02,-1.919393986463546753e-02
4.326000000000000000e+03,1.039999961853027344e+01,2.099999904632568359e+00,1.428211859888506297e-08,2.563936263300092833e-08,2.894717693328857422e+00,-1.645383052527904510e-02,-1.919371075928211212e-02
4.327000000000000000e+03,1.050000000000000000e+01,2.099999904632568359e+00,1.442019836872532323e-08,2.613536231876878446e-08,2.894722938537597656e+00,-1.644922047853469849e-02,-1.919408515095710754e-02
4.328000000000000000e+03,1.060000038146972656e+01,2.099999904632568359e+00,1.455827813856558350e-08,2.663612264086623327e-08,2.894728422164916992e+00,-1.644553057849407196e-02,-1.919445395469665527e-02
4.329000000000000000e+03,1.069999980926513672e+01,2.099999904632568359e+00,1.469635613204900437e-08,2.714163649386591715e-08,2.894733667373657227e+00,-1.644264906644821167e-02,-1.919478178024291992e-02
4.330000000000000000e+03,1.080000019073486328e+01,2.099999904632568359e+00,1.483443679006768434e-08,2.765191631226571189e-08,2.894738912582397461e+00,-1.644047535955905914e-02,-1.919561810791492462e-02
4.331000000000000000e+03,1.089999961853027344e+01,2.099999904632568359e+00,1.497251567172952491e-08,2.816694788521090231e-08,2.894744157791137695e+00,-1.643891632556915283e-02,-1.919617131352424622e-02
4.332000000000000000e+03,1.100000000000000000e+01,2.099999904632568359e+00,1.511059544156978518e-08,2.868674542355620360e-08,2.894748926162719727e+00,-1.643789187073707581e-02,-1.919718645513057709e-02
4.333000000000000000e+03,1.110000038146972656e+01,2.099999904632568359e+00,1.524867698776688485e-08,2.921130182187425817e-08,2.894753694534301758e+00,-1.643732562661170959e-02,-1.919806934893131256e-02
4.334000000000000000e+03,1.119999980926513672e+01,2.099999904632568359e+00,1.538675675760714512e-08,2.974061175109454780e-08,2.894758462905883789e+00,-1.643715426325798035e-02,-1.919880136847496033e-02
4.335000000000000000e+03,1.130000019073486328e+01,2.099999904632568359e+00,1.552483830380424479e-08,3.027468764571494830e-08,2.894762754440307617e+00,-1.643731445074081421e-02,-1.919994689524173737e-02
4.336000000000000000e+03,1.139999961853027344e+01,2.099999904632568359e+00,1.566291807364450506e-08,3.081351351852390508e-08,2.894767045974731445e+00,-1.643775589764118195e-02,-1.920072361826896667e-02
4.337000000000000000e+03,1.150000000000000000e+01,2.099999904632568359e+00,1.580099961984160473e-08,3.135710713308981212e-08,2.894771099090576172e+00,-1.643842831254005432e-02,-1.920188963413238525e-02
4.338000000000000000e+03,1.160000038146972656e+01,2.099999904632568359e+00,1.593908116603870440e-08,3.190546138398531184e-08,2.894774913787841797e+00,-1.643929444253444672e-02,-1.920285820960998535e-02
4.339000000000000000e+03,1.169999980926513672e+01,2.099999904632568359e+00,1.607716093587896466e-08,3.245856561306936783e-08,2.894778490066528320e+00,-1.644031330943107605e-02,-1.920362561941146851e-02
4.340000000000000000e+03,1.180000019073486328e+01,2.099999904632568359e+00,1.621524425843290373e-08,3.301643403119669529e-08,2.894781827926635742e+00,-1.644145511090755463e-02,-1.920475624501705170e-02
4.341000000000000000e+03,1.189999961853027344e+01,2.099999904632568359e+00,1.635332580463000340e-08,3.357905953293993662e-08,2.894784927368164062e+00,-1.644269004464149475e-02,-1.920548267662525177e-02
4.342000000000000000e+03,1.200000000000000000e+01,2.099999904632568359e+00,1.649140735082710307e-08,3.414644922372644942e-08,2.894788026809692383e+00,-1.644399389624595642e-02,-1.920656301081180573e-02
4.343000000000000000e+03,1.210000038146972656e+01,2.099999904632568359e+00,1.662949067338104214e-08,3.471859599812887609e-08,2.894790887832641602e+00,-1.644534431397914886e-02,-1.920742355287075043e-02
4.344000000000000000e+03,1.219999980926513672e+01,2.099999904632568359e+00,1.676757221957814181e-08,3.529549630343353783e-08,2.894793510437011719e+00,-1.644672267138957977e-02,-1.920805685222148895e-02
4.345000000000000000e+03,1.230000019073486328e+01,2.099999904632568359e+00,1.690565376577524148e-08,3.587716079778147105e-08,2.894795894622802734e+00,-1.644811406731605530e-02,-1.920903846621513367e-02
4.346000000000000000e+03,1.239999961853027344e+01,2.099999904632568359e+00,1.704373708832918055e-08,3.646357882303163933e-08,2.894798040390014648e+00,-1.644950360059738159e-02,-1.920960098505020142e-02
4.347000000000000000e+03,1.250000000000000000e+01,2.099999904632568359e+00,1.718181863452628022e-08,3.705476459003875789e-08,2.894800186157226562e+00,-1.645088009536266327e-02,-1.921050995588302612e-02
4.348000000000000000e+03,1.260000038146972656e+01,2.099999904632568359e+00,1.731990195708021929e-08,3.765070744066179032e-08,2.894802093505859375e+00,-1.645223423838615417e-02,-1.921118982136249542e-02
4.349000000000000000e+03,1.269999980926513672e+01,2.099999904632568359e+00,1.745798527963415836e-08,3.825140382218705781e-08,2.894804000854492188e+00,-1.645355857908725739e-02,-1.921163871884346008e-02
4.350000000000000000e+03,1.280000019073486328e+01,2.099999904632568359e+00,1.759606860218809743e-08,3.885686439275559678e-08,2.894805669784545898e+00,-1.645484566688537598e-02,-1.921243593096733093e-02
4.351000000000000000e+03,1.289999961853027344e+01,2.099999904632568359e+00,1.773415014838519710e-08,3.946707849422637082e-08,2.894807100296020508e+00,-1.645609177649021149e-02,-1.921281218528747559e-02
4.352000000000000000e+03,1.300000000000000000e+01,2.099999904632568359e+00,1.787223347093913617e-08,4.008205678474041633e-08,2.894808530807495117e+00,-1.645729131996631622e-02,-1.921353675425052643e-02
4.353000000000000000e+03,1.310000038146972656e+01,2.099999904632568359e+00,1.801031856984991464e-08,4.070179571158405452e-08,2.894809961318969727e+00,-1.645844429731369019e-02,-1.921403408050537109e-02
4.354000000000000000e+03,1.319999980926513672e+01,2.099999904632568359e+00,1.814840011604701431e-08,4.132628816932992777e-08,2.894811153411865234e+00,-1.645954512059688568e-02,-1.921430602669715881e-02
4.355000000000000000e+03,1.330000019073486328e+01,2.099999904632568359e+00,1.828648343860095338e-08,4.195554481611907249e-08,2.894812107086181641e+00,-1.646059565246105194e-02,-1.921493001282215118e-02
4.356000000000000000e+03,1.339999961853027344e+01,2.099999904632568359e+00,1.842456676115489245e-08,4.258955144109677349e-08,2.894813060760498047e+00,-1.646159403026103973e-02,-1.921513862907886505e-02
4.357000000000000000e+03,1.350000000000000000e+01,2.099999904632568359e+00,1.856265008370883152e-08,4.322832936054510355e-08,2.894814014434814453e+00,-1.646254211664199829e-02,-1.921570301055908203e-02
4.358000000000000000e+03,1.360000038146972656e+01,2.099999904632568359e+00,1.870073518261960999e-08,4.387186081089566869e-08,2.894814729690551758e+00,-1.646343804895877838e-02,-1.921604759991168976e-02
4.359000000000000000e+03,1.369999980926513672e+01,2.099999904632568359e+00,1.883881850517354906e-08,4.452014934486214770e-08,2.894815444946289062e+00,-1.646428555250167847e-02,-1.921617425978183746e-02
4.360000000000000000e+03,1.380000019073486328e+01,2.099999904632568359e+00,1.897690182772748813e-08,4.517319851515821938e-08,2.894816160202026367e+00,-1.646508276462554932e-02,-1.921666041016578674e-02
4.361000000000000000e+03,1.389999961853027344e+01,2.099999904632568359e+00,1.911498515028142720e-08,4.583100476907020493e-08,2.894816637039184570e+00,-1.646583713591098785e-02,-1.921674050390720367e-02
4.362000000000000000e+03,1.400000000000000000e+01,2.099999904632568359e+00,1.925306847283536626e-08,4.649357521202546195e-08,2.894817352294921875e+00,-1.646654680371284485e-02,-1.921718567609786987e-02
4.363000000000000000e+03,1.410000038146972656e+01,2.099999904632568359e+00,1.939115357174614473e-08,4.716090273859663284e-08,2.894817829132080078e+00,-1.646721735596656799e-02,-1.921742223203182220e-02
4.364000000000000000e+03,1.419999980926513672e+01,2.099999904632568359e+00,1.952923689430008380e-08,4.783298379607003881e-08,2.894818067550659180e+00,-1.646784879267215729e-02,-1.921745017170906067e-02
4.365000000000000000e+03,1.430000019073486328e+01,2.099999904632568359e+00,1.966732021685402287e-08,4.850983259530039504e-08,2.894818544387817383e+00,-1.646844856441020966e-02,-1.921785064041614532e-02
4.366000000000000000e+03,1.439999961853027344e+01,2.099999904632568359e+00,1.980540353940796194e-08,4.919143137271930755e-08,2.894819021224975586e+00,-1.646901667118072510e-02,-1.921785809099674225e-02
4.367000000000000000e+03,1.450000000000000000e+01,2.099999904632568359e+00,1.994348686196190101e-08,4.987779789189517032e-08,2.894819259643554688e+00,-1.646956056356430054e-02,-1.921824365854263306e-02
4.368000000000000000e+03,1.460000038146972656e+01,2.099999904632568359e+00,2.008157196087267948e-08,5.056892149468694697e-08,2.894819498062133789e+00,-1.647008396685123444e-02,-1.921843551099300385e-02
4.369000000000000000e+03,1.469999980926513672e+01,2.099999904632568359e+00,2.021965528342661855e-08,5.126479862838095869e-08,2.894819736480712891e+00,-1.647059060633182526e-02,-1.921843551099300385e-02
4.370000000000000000e+03,1.480000019073486328e+01,2.099999904632568359e+00,2.035774038233739702e-08,5.196544350383192068e-08,2.894819974899291992e+00,-1.647108979523181915e-02,-1.921882666647434235e-02
4.371000000000000000e+03,1.489999961853027344e+01,2.099999904632568359e+00,2.049582192853449669e-08,5.267083480475776014e-08,2.894820213317871094e+00,-1.647158339619636536e-02,-1.921884529292583466e-02
4.372000000000000000e+03,1.500000000000000000e+01,2.099999904632568359e+00,2.063390702744527516e-08,5.338099740015422867e-08,2.894820451736450195e+00,-1.647208072245121002e-02,-1.921926438808441162e-02
4.373000000000000000e+03,1.510000038146972656e+01,2.099999904632568359e+00,2.077199212635605363e-08,5.409591707916661107e-08,2.894820690155029297e+00,-1.647258922457695007e-02,-1.921951584517955780e-02
4.374000000000000000e+03,1.519999980926513672e+01,2.099999904632568359e+00,2.091007544890999270e-08,5.481559028908122855e-08,2.894820928573608398e+00,-1.647311635315418243e-02,-1.921960897743701935e-02
4.375000000000000000e+03,1.530000019073486328e+01,2.099999904632568359e+00,2.104815877146393177e-08,5.554002768803911749e-08,2.894821166992187500e+00,-1.647367142140865326e-02,-1.922012493014335632e-02
4.376000000000000000e+03,1.539999961853027344e+01,2.099999904632568359e+00,2.118624209401787084e-08,5.626921861789924151e-08,2.894821405410766602e+00,-1.647426746785640717e-02,-1.922030933201313019e-02
4.377000000000000000e+03,1.550000000000000000e+01,2.099999904632568359e+00,2.132432719292864931e-08,5.700317373680263699e-08,2.894821643829345703e+00,-1.647491194307804108e-02,-1.922094263136386871e-02
4.378000000000000000e+03,1.560000038146972656e+01,2.099999904632568359e+00,2.146241229183942778e-08,5.774188949203562515e-08,2.894821882247924805e+00,-1.647561974823474884e-02,-1.922145858407020569e-02
4.379000000000000000e+03,1.569999980926513672e+01,2.099999904632568359e+00,2.160049383803652745e-08,5.848535522545716958e-08,2.894822359085083008e+00,-1.647640392184257507e-02,-1.922187767922878265e-02
4.380000000000000000e+03,1.580000019073486328e+01,2.099999904632568359e+00,2.173857893694730592e-08,5.923358870063566428e-08,2.894822835922241211e+00,-1.647727936506271362e-02,-1.922279037535190582e-02
4.381000000000000000e+03,1.589999961853027344e+01,2.099999904632568359e+00,2.187666225950124499e-08,5.998657570671639405e-08,2.894823312759399414e+00,-1.647826470434665680e-02,-1.922344975173473358e-02
4.382000000000000000e+03,1.600000000000000000e+01,2.099999904632568359e+00,2.201474735841202346e-08,6.074432690184039529e-08,2.894824028015136719e+00,-1.647937670350074768e-02,-1.922464743256568909e-02
4.383000000000000000e+03,1.610000038146972656e+01,2.099999904632568359e+00,2.215283245732280193e-08,6.150683873329398921e-08,2.894824743270874023e+00,-1.648063585162162781e-02,-1.922583766281604767e-02
4.384000000000000000e+03,1.620000076293945312e+01,2.099999904632568359e+00,2.229091755623358040e-08,6.227410409564981819e-08,2.894825458526611328e+00,-1.648206636309623718e-02,-1.922723650932312012e-02
4.385000000000000000e+03,1.629999923706054688e+01,2.099999904632568359e+00,2.242899910243068007e-08,6.304611588348052464e-08,2.894826650619506836e+00,-1.648368872702121735e-02,-1.922849938273429871e-02
4.386000000000000000e+03,1.639999961853027344e+01,2.099999904632568359e+00,2.256708420134145854e-08,6.382290251849553897e-08,2.894827842712402344e+00,-1.648552902042865753e-02,-1.923081651329994202e-02
4.387000000000000000e+03,1.650000000000000000e+01,2.099999904632568359e+00,2.270516930025223701e-08,6.460444978984014597e-08,2.894829273223876953e+00,-1.648761332035064697e-02,-1.923307776451110840e-02
4.388000000000000000e+03,1.660000038146972656e+01,2.099999904632568359e+00,2.284325439916301548e-08,6.539075769751434564e-08,2.894830942153930664e+00,-1.648996770381927490e-02,-1.923571527004241943e-02
4.389000000000000000e+03,1.670000076293945312e+01,2.099999904632568359e+00,2.298133949807379395e-08,6.618181913609078038e-08,2.894833087921142578e+00,-1.649262383580207825e-02,-1.923878304660320282e-02
4.390000000000000000e+03,1.679999923706054688e+01,2.099999904632568359e+00,2.311942282062773302e-08,6.697762700014209258e-08,2.894835233688354492e+00,-1.649560406804084778e-02,-1.924195513129234314e-02
4.391000000000000000e+03,1.689999961853027344e+01,2.099999904632568359e+00,2.325750791953851149e-08,6.777820971137771267e-08,2.894838094711303711e+00,-1.649893634021282196e-02,-1.924645155668258667e-02
4.392000000000000000e+03,1.700000000000000000e+01,2.099999904632568359e+00,2.339559479480612936e-08,6.858355305894292542e-08,2.894841194152832031e+00,-1.650264114141464233e-02,-1.925118826329708099e-02
4.393000000000000000e+03,1.710000038146972656e+01,2.099999904632568359e+00,2.353367989371690783e-08,6.939364993741037324e-08,2.894845008850097656e+00,-1.650674082338809967e-02,-1.925662532448768616e-02
4.394000000000000000e+03,1.720000076293945312e+01,2.099999904632568359e+00,2.367176676898452570e-08,7.020850745220741373e-08,2.894849061965942383e+00,-1.651124283671379089e-02,-1.926284097135066986e-02
4.395000000000000000e+03,1.729999923706054688e+01,2.099999904632568359e+00,2.380985009153846477e-08,7.102810428705197410e-08,2.894853830337524414e+00,-1.651615090668201447e-02,-1.926953531801700592e-02
4.396000000000000000e+03,1.739999961853027344e+01,2.099999904632568359e+00,2.394793696680608264e-08,7.185248307450819993e-08,2.894859313964843750e+00,-1.652145385742187500e-02,-1.927794888615608215e-02
4.397000000000000000e+03,1.750000000000000000e+01,2.099999904632568359e+00,2.408602561843053991e-08,7.268161539286666084e-08,2.894865512847900391e+00,-1.652712374925613403e-02,-1.928701251745223999e-02
4.398000000000000000e+03,1.760000038146972656e+01,2.099999904632568359e+00,2.422411249369815778e-08,7.351550834755471442e-08,2.894872426986694336e+00,-1.653310656547546387e-02,-1.929719187319278717e-02
4.399000000000000000e+03,1.770000076293945312e+01,2.099999904632568359e+00,2.436220114532261505e-08,7.435416193857236067e-08,2.894880294799804688e+00,-1.653932593762874603e-02,-1.930856332182884216e-02
4.400000000000000000e+03,1.779999923706054688e+01,2.099999904632568359e+00,2.450028624423339352e-08,7.519755484963752679e-08,2.894888877868652344e+00,-1.654567196965217590e-02,-1.932080835103988647e-02
4.401000000000000000e+03,1.789999961853027344e+01,2.099999904632568359e+00,2.463837667221469019e-08,7.604572260788700078e-08,2.894898414611816406e+00,-1.655198819935321808e-02,-1.933512091636657715e-02
4.402000000000000000e+03,1.800000000000000000e+01,2.099999904632568359e+00,2.477646710019598686e-08,7.689864389703870984e-08,2.894908905029296875e+00,-1.655807532370090485e-02,-1.935036852955818176e-02
4.403000000000000000e+03,1.810000038146972656e+01,2.099999904632568359e+00,2.491455752817728353e-08,7.775633292794736917e-08,2.894920110702514648e+00,-1.656367629766464233e-02,-1.936691440641880035e-02
4.404000000000000000e+03,1.820000076293945312e+01,2.099999904632568359e+00,2.505264795615858020e-08,7.861877548975826357e-08,2.894932270050048828e+00,-1.656847633421421051e-02,-1.938469521701335907e-02
4.405000000000000000e+03,1.829999923706054688e+01,2.099999904632568359e+00,2.519073660778303747e-08,7.948595737161667785e-08,2.894945144653320312e+00,-1.657209359109401703e-02,-1.940319128334522247e-02
4.406000000000000000e+03,1.839999961853027344e+01,2.099999904632568359e+00,2.532882881212117354e-08,8.035791410065939999e-08,2.894958496093750000e+00,-1.657408289611339569e-02,-1.942334882915019989e-02
4.407000000000000000e+03,1.850000000000000000e+01,2.099999904632568359e+00,2.546692279281614901e-08,8.123463146603171481e-08,2.894972324371337891e+00,-1.657393574714660645e-02,-1.944370940327644348e-02
4.408000000000000000e+03,1.860000038146972656e+01,2.099999904632568359e+00,2.560501677351112448e-08,8.211610946773362230e-08,2.894986391067504883e+00,-1.657109148800373077e-02,-1.946423947811126709e-02
4.409000000000000000e+03,1.870000076293945312e+01,2.099999904632568359e+00,2.574311075420609995e-08,8.300234810576512245e-08,2.895000219345092773e+00,-1.656495407223701477e-02,-1.948438957333564758e-02
4.410000000000000000e+03,1.879999923706054688e+01,2.099999904632568359e+00,2.588120295854423603e-08,8.389331895841678488e-08,2.895013809204101562e+00,-1.655492559075355530e-02,-1.950308121740818024e-02
4.411000000000000000e+03,1.889999961853027344e+01,2.099999904632568359e+00,2.601929871559605090e-08,8.478907886910747038e-08,2.895026683807373047e+00,-1.654043421149253845e-02,-1.952062360942363739e-02
4.412000000000000000e+03,1.900000000000000000e+01,2.099999904632568359e+00,2.615739447264786577e-08,8.568959231070039095e-08,2.895038604736328125e+00,-1.652099192142486572e-02,-1.953486539423465729e-02
4.413000000000000000e+03,1.910000038146972656e+01,2.099999904632568359e+00,2.629549022969968064e-08,8.659486638862290420e-08,2.895049095153808594e+00,-1.649624668061733246e-02,-1.954504847526550293e-02
4.414000000000000000e+03,1.920000076293945312e+01,2.099999904632568359e+00,2.643358598675149551e-08,8.750490110287501011e-08,2.895058155059814453e+00,-1.646603643894195557e-02,-1.954992301762104034e-02
4.415000000000000000e+03,1.929999923706054688e+01,2.099999904632568359e+00,2.657167819108963158e-08,8.841968224260199349e-08,2.895065307617187500e+00,-1.643046364188194275e-02,-1.954778283834457397e-02
4.416000000000000000e+03,1.939999961853027344e+01,2.099999904632568359e+00,2.670977394814144645e-08,8.933924533494064235e-08,2.895070791244506836e+00,-1.638991944491863251e-02,-1.953845471143722534e-02
4.417000000000000000e+03,1.950000000000000000e+01,2.099999904632568359e+00,2.684786792883642192e-08,9.026356906360888388e-08,2.895074129104614258e+00,-1.634513027966022491e-02,-1.951953396201133728e-02
4.418000000000000000e+03,1.960000038146972656e+01,2.099999904632568359e+00,2.698596190953139740e-08,9.119266053403407568e-08,2.895076036453247070e+00,-1.629714109003543854e-02,-1.949031092226505280e-02
4.419000000000000000e+03,1.970000076293945312e+01,2.099999904632568359e+00,2.712405589022637287e-08,9.212651974621621775e-08,2.895076751708984375e+00,-1.624728552997112274e-02,-1.944995298981666565e-02
4.420000000000000000e+03,1.979999923706054688e+01,2.099999904632568359e+00,2.726214454185083014e-08,9.306512538387323730e-08,2.895076513290405273e+00,-1.619710959494113922e-02,-1.939757354557514191e-02
4.421000000000000000e+03,1.989999961853027344e+01,2.099999904632568359e+00,2.740023674618896621e-08,9.400851297414192231e-08,2.895076274871826172e+00,-1.614824682474136353e-02,-1.933423243463039398e-02
4.422000000000000000e+03,2.000000000000000000e+01,2.099999904632568359e+00,2.753832895052710228e-08,9.495668251702227280e-08,2.895076274871826172e+00,-1.610236242413520813e-02,-1.925912871956825256e-02
4.423000000000000000e+03,0.000000000000000000e+00,2.200000047683715820e+00,1.239945784494320290e-37,3.204132277369281714e-38,2.634049654006958008e+00,7.902148962020874023e-01,-9.301024675369262695e-02
4.424000000000000000e+03,1.000000014901161194e-01,2.200000047683715820e+00,1.141421471229087103e-10,-1.151555500261691733e-11,2.615918636322021484e+00,7.297784090042114258e-01,-1.263351440429687500e-01
4.425000000000000000e+03,2.000000029802322388e-01,2.200000047683715820e+00,2.299294088459191698e-10,-1.574171348828201644e-11,2.635730266571044922e+00,6.806587576866149902e-01,-1.016428843140602112e-01
4.426000000000000000e+03,3.000000119209289551e-01,2.200000047683715820e+00,3.473509813112229949e-10,-1.294217250730200774e-11,2.655402421951293945e+00,6.318320035934448242e-01,-7.992317527532577515e-02
4.427000000000000000e+03,4.000000059604644775e-01,2.200000047683715820e+00,4.663821551176283720e-10,-3.377790668696034615e-12,2.674750089645385742e+00,5.836527943611145020e-01,-6.111970916390419006e-02
4.428000000000000000e+03,5.000000000000000000e-01,2.200000047683715820e+00,5.869844055261808080e-10,1.269703873291172513e-11,2.693588018417358398e+00,5.364690423011779785e-01,-4.513034969568252563e-02
4.429000000000000000e+03,6.000000238418579102e-01,2.200000047683715820e+00,7.091060516550840020e-10,3.503787190939355867e-11,2.711737155914306641e+00,4.906088709831237793e-01,-3.181034699082374573e-02
4.430000000000000000e+03,6.999999880790710449e-01,2.200000047683715820e+00,8.326833111915732388e-10,6.341330932579936075e-11,2.729033470153808594e+00,4.463688731193542480e-01,-2.097802422940731049e-02
4.431000000000000000e+03,8.000000119209289551e-01,2.200000047683715820e+00,9.576419657264523266e-10,9.760767888389310087e-11,2.745333671569824219e+00,4.040045440196990967e-01,-1.242243405431509018e-02
4.432000000000000000e+03,8.999999761581420898e-01,2.200000047683715820e+00,1.083899192622084229e-09,1.374229757766798343e-10,2.760518789291381836e+00,3.637244999408721924e-01,-5.911966785788536072e-03
4.433000000000000000e+03,1.000000000000000000e+00,2.200000047683715820e+00,1.211365563413835389e-09,1.826803014415290249e-10,2.774498939514160156e+00,3.256869316101074219e-01,-1.203655963763594627e-03
4.434000000000000000e+03,1.100000023841857910e+00,2.200000047683715820e+00,1.339947153233822519e-09,2.332204429578155214e-10,2.787214279174804688e+00,2.899999022483825684e-01,1.948214834555983543e-03
4.435000000000000000e+03,1.200000047683715820e+00,2.200000047683715820e+00,1.469548038812718005e-09,2.889040395803732508e-10,2.798633337020874023e+00,2.567234933376312256e-01,3.784114494919776917e-03
4.436000000000000000e+03,1.299999952316284180e+00,2.200000047683715820e+00,1.600071186658169609e-09,3.496108957889987323e-10,2.808752536773681641e+00,2.258741408586502075e-01,4.532840568572282791e-03
4.437000000000000000e+03,1.399999976158142090e+00,2.200000047683715820e+00,1.731421894746176804e-09,4.152395094436656109e-10,2.817592859268188477e+00,1.974300593137741089e-01,4.406378604471683502e-03
4.438000000000000000e+03,1.500000000000000000e+00,2.200000047683715820e+00,1.863507348431880928e-09,4.857051427720193715e-10,2.825196027755737305e+00,1.713375747203826904e-01,3.596755675971508026e-03
4.439000000000000000e+03,1.600000023841857910e+00,2.200000047683715820e+00,1.996239173962521818e-09,5.609389619465332544e-10,2.831620216369628906e+00,1.475172936916351318e-01,2.273836173117160797e-03
4.440000000000000000e+03,1.700000047683715820e+00,2.200000047683715820e+00,2.129533216432832887e-09,6.408858443940346206e-10,2.836937189102172852e+00,1.258701235055923462e-01,5.847927532158792019e-04
4.441000000000000000e+03,1.799999952316284180e+00,2.200000047683715820e+00,2.263311316141880525e-09,7.255031020392266328e-10,2.841226816177368164e+00,1.062828823924064636e-01,-1.345527474768459797e-03
4.442000000000000000e+03,1.899999976158142090e+00,2.200000047683715820e+00,2.397501086548459170e-09,8.147589825036050115e-10,2.844575643539428711e+00,8.863300085067749023e-02,-3.413606435060501099e-03
4.443000000000000000e+03,2.000000000000000000e+00,2.200000047683715820e+00,2.532036136315696240e-09,9.086304486594087848e-10,2.847071409225463867e+00,7.279283553361892700e-02,-5.535314325243234634e-03
4.444000000000000000e+03,2.099999904632568359e+00,2.200000047683715820e+00,2.666855625221842274e-09,1.007102179428898125e-09,2.848803281784057617e+00,5.863289907574653625e-02,-7.644157856702804565e-03
4.445000000000000000e+03,2.200000047683715820e+00,2.200000047683715820e+00,2.801905818472505416e-09,1.110165626094783420e-09,2.849857568740844727e+00,4.602455347776412964e-02,-9.689154103398323059e-03
4.446000000000000000e+03,2.299999952316284180e+00,2.200000047683715820e+00,2.937137422165392309e-09,1.217816403276117398e-09,2.850317716598510742e+00,3.484222665429115295e-02,-1.163231674581766129e-02
4.447000000000000000e+03,2.400000095367431641e+00,2.200000047683715820e+00,3.072507803736357346e-09,1.330055288129017299e-09,2.850262403488159180e+00,2.496470883488655090e-02,-1.344722136855125427e-02
4.448000000000000000e+03,2.500000000000000000e+00,2.200000047683715820e+00,3.207978105379538647e-09,1.446885278255649609e-09,2.849765062332153320e+00,1.627647504210472107e-02,-1.511632930487394333e-02
4.449000000000000000e+03,2.599999904632568359e+00,2.200000047683715820e+00,3.343515908582617158e-09,1.568312479882649768e-09,2.848893642425537109e+00,8.668206632137298584e-03,-1.662997528910636902e-02
4.450000000000000000e+03,2.700000047683715820e+00,2.200000047683715820e+00,3.479092125502347699e-09,1.694344664571190151e-09,2.847710132598876953e+00,2.037303289398550987e-03,-1.798435486853122711e-02
4.451000000000000000e+03,2.799999952316284180e+00,2.200000047683715820e+00,3.614681665098373742e-09,1.824990047971652984e-09,2.846270561218261719e+00,-3.711896715685725212e-03,-1.918018609285354614e-02
4.452000000000000000e+03,2.900000095367431641e+00,2.200000047683715820e+00,3.750264099267042184e-09,1.960259066180469745e-09,2.844625234603881836e+00,-8.668219670653343201e-03,-2.022205851972103119e-02
4.453000000000000000e+03,3.000000000000000000e+00,2.200000047683715820e+00,3.885820998306144247e-09,2.100160712004139896e-09,2.842819213867187500e+00,-1.291365362703800201e-02,-2.111677080392837524e-02
4.454000000000000000e+03,3.099999904632568359e+00,2.200000047683715820e+00,4.021337485227149955e-09,2.244705532561397376e-09,2.840891838073730469e+00,-1.652365922927856445e-02,-2.187325805425643921e-02
4.455000000000000000e+03,3.200000047683715820e+00,2.200000047683715820e+00,4.156801569621393355e-09,2.393904408037883513e-09,2.838878154754638672e+00,-1.956740394234657288e-02,-2.250148355960845947e-02
4.456000000000000000e+03,3.299999952316284180e+00,2.200000047683715820e+00,4.292203481526257747e-09,2.547765776128585458e-09,2.836808204650878906e+00,-2.210807055234909058e-02,-2.301192656159400940e-02
4.457000000000000000e+03,3.400000095367431641e+00,2.200000047683715820e+00,4.427535671425175678e-09,2.706300294974539611e-09,2.834708213806152344e+00,-2.420324645936489105e-02,-2.341566421091556549e-02
4.458000000000000000e+03,3.500000000000000000e+00,2.200000047683715820e+00,4.562791477979999399e-09,2.869516180226128199e-09,2.832600355148315430e+00,-2.590524591505527496e-02,-2.372334152460098267e-02
4.459000000000000000e+03,3.599999904632568359e+00,2.200000047683715820e+00,4.697966460298630409e-09,3.037421869578338374e-09,2.830503940582275391e+00,-2.726149186491966248e-02,-2.394566312432289124e-02
4.460000000000000000e+03,3.700000047683715820e+00,2.200000047683715820e+00,4.833058397935019457e-09,3.210026022770762211e-09,2.828434705734252930e+00,-2.831486798822879791e-02,-2.409275062382221222e-02
4.461000000000000000e+03,3.799999952316284180e+00,2.200000047683715820e+00,4.968065070443117293e-09,3.387335301141547461e-09,2.826406002044677734e+00,-2.910404838621616364e-02,-2.417401410639286041e-02
4.462000000000000000e+03,3.900000095367431641e+00,2.200000047683715820e+00,5.102985589644504216e-09,3.569356810118051726e-09,2.824428558349609375e+00,-2.966384775936603546e-02,-2.419856563210487366e-02
4.463000000000000000e+03,4.000000000000000000e+00,2.200000047683715820e+00,5.237819511449970378e-09,3.756096322860003056e-09,2.822510957717895508e+00,-3.002552501857280731e-02,-2.417445555329322815e-02
4.464000000000000000e+03,4.099999904632568359e+00,2.200000047683715820e+00,5.372568168127145327e-09,3.947559612527129502e-09,2.820660114288330078e+00,-3.021707944571971893e-02,-2.410937100648880005e-02
4.465000000000000000e+03,4.199999809265136719e+00,2.200000047683715820e+00,5.507232891943658615e-09,4.143752008189949265e-09,2.818881034851074219e+00,-3.026353195309638977e-02,-2.401011437177658081e-02
4.466000000000000000e+03,4.300000190734863281e+00,2.200000047683715820e+00,5.641815903345559491e-09,4.344678838918980546e-09,2.817177772521972656e+00,-3.018718771636486053e-02,-2.388294041156768799e-02
4.467000000000000000e+03,4.400000095367431641e+00,2.200000047683715820e+00,5.776318534600477506e-09,4.550342325160272594e-09,2.815552711486816406e+00,-3.000787831842899323e-02,-2.373309433460235596e-02
4.468000000000000000e+03,4.500000000000000000e+00,2.200000047683715820e+00,5.910743450243671759e-09,4.760747351895133761e-09,2.814007282257080078e+00,-2.974317781627178192e-02,-2.356573939323425293e-02
4.469000000000000000e+03,4.599999904632568359e+00,2.200000047683715820e+00,6.045094202988821053e-09,4.975896583658823147e-09,2.812542200088500977e+00,-2.940862253308296204e-02,-2.338510192930698395e-02
4.470000000000000000e+03,4.699999809265136719e+00,2.200000047683715820e+00,6.179373457371184486e-09,5.195793573165019552e-09,2.811156988143920898e+00,-2.901789732277393341e-02,-2.319495752453804016e-02
4.471000000000000000e+03,4.800000190734863281e+00,2.200000047683715820e+00,6.313584322015231010e-09,5.420441873127401777e-09,2.809850692749023438e+00,-2.858301252126693726e-02,-2.299866452813148499e-02
4.472000000000000000e+03,4.900000095367431641e+00,2.200000047683715820e+00,6.447729905545429574e-09,5.649841483545969822e-09,2.808622360229492188e+00,-2.811448089778423309e-02,-2.279877662658691406e-02
4.473000000000000000e+03,5.000000000000000000e+00,2.200000047683715820e+00,6.581813316586249130e-09,5.883994624866772938e-09,2.807470083236694336e+00,-2.762144058942794800e-02,-2.259797044098377228e-02
4.474000000000000000e+03,5.099999904632568359e+00,2.200000047683715820e+00,6.715838107851368477e-09,6.122903961625070224e-09,2.806391477584838867e+00,-2.711181342601776123e-02,-2.239819429814815521e-02
4.475000000000000000e+03,5.199999809265136719e+00,2.200000047683715820e+00,6.849807832054466417e-09,6.366570826088491231e-09,2.805384159088134766e+00,-2.659242600202560425e-02,-2.220114506781101227e-02
4.476000000000000000e+03,5.300000190734863281e+00,2.200000047683715820e+00,6.983725597820011899e-09,6.614996994613875358e-09,2.804445266723632812e+00,-2.606911957263946533e-02,-2.200831100344657898e-02
4.477000000000000000e+03,5.400000095367431641e+00,2.200000047683715820e+00,7.117594069683264024e-09,6.868181579022802907e-09,2.803572416305541992e+00,-2.554687112569808960e-02,-2.182056196033954620e-02
4.478000000000000000e+03,5.500000000000000000e+00,2.200000047683715820e+00,7.251416356268691743e-09,7.126126355672113277e-09,2.802762508392333984e+00,-2.502986043691635132e-02,-2.163906767964363098e-02
4.479000000000000000e+03,5.599999904632568359e+00,2.200000047683715820e+00,7.385195566200764006e-09,7.388832212740226169e-09,2.802012205123901367e+00,-2.452157996594905853e-02,-2.146444097161293030e-02
4.480000000000000000e+03,5.699999809265136719e+00,2.200000047683715820e+00,7.518934808103949763e-09,7.656299594316351431e-09,2.801318883895874023e+00,-2.402491122484207153e-02,-2.129719965159893036e-02
4.481000000000000000e+03,5.800000190734863281e+00,2.200000047683715820e+00,7.652637634691927815e-09,7.928530720846538316e-09,2.800679445266723633e+00,-2.354218810796737671e-02,-2.113779634237289429e-02
4.482000000000000000e+03,5.900000095367431641e+00,2.200000047683715820e+00,7.786304934143117862e-09,8.205523371884737571e-09,2.800090551376342773e+00,-2.307527139782905579e-02,-2.098619565367698669e-02
4.483000000000000000e+03,6.000000000000000000e+00,2.200000047683715820e+00,7.919939370992779004e-09,8.487277547430949198e-09,2.799549579620361328e+00,-2.262559719383716583e-02,-2.084278501570224762e-02
4.484000000000000000e+03,6.099999904632568359e+00,2.200000047683715820e+00,8.053544497954590042e-09,8.773795023842012597e-09,2.799053668975830078e+00,-2.219424024224281311e-02,-2.070749923586845398e-02
4.485000000000000000e+03,6.199999809265136719e+00,2.200000047683715820e+00,8.187122091385390377e-09,9.065075801117927767e-09,2.798599481582641602e+00,-2.178195305168628693e-02,-2.058028243482112885e-02
4.486000000000000000e+03,6.300000190734863281e+00,2.200000047683715820e+00,8.320675703998858808e-09,9.361121655615534110e-09,2.798184871673583984e+00,-2.138921618461608887e-02,-2.046109363436698914e-02
4.487000000000000000e+03,6.400000095367431641e+00,2.200000047683715820e+00,8.454204447616575635e-09,9.661928146442733123e-09,2.797806978225708008e+00,-2.101627737283706665e-02,-2.034948952496051788e-02
4.488000000000000000e+03,6.500000000000000000e+00,2.200000047683715820e+00,8.587711874952219659e-09,9.967498826313203608e-09,2.797463178634643555e+00,-2.066317386925220490e-02,-2.024551108479499817e-02
4.489000000000000000e+03,6.599999904632568359e+00,2.200000047683715820e+00,8.721199762362630281e-09,1.027783191887010616e-08,2.797151088714599609e+00,-2.032977715134620667e-02,-2.014881744980812073e-02
4.490000000000000000e+03,6.699999809265136719e+00,2.200000047683715820e+00,8.854669886204646900e-09,1.059292742411344079e-08,2.796868324279785156e+00,-2.001581341028213501e-02,-2.005912549793720245e-02
4.491000000000000000e+03,6.800000190734863281e+00,2.200000047683715820e+00,8.988124022835108917e-09,1.091278800657846659e-08,2.796612977981567383e+00,-1.972089149057865143e-02,-1.997621729969978333e-02
4.492000000000000000e+03,6.900000095367431641e+00,2.200000047683715820e+00,9.121563060432436032e-09,1.123740922537308506e-08,2.796382665634155273e+00,-1.944452337920665741e-02,-1.989950612187385559e-02
4.493000000000000000e+03,7.000000000000000000e+00,2.200000047683715820e+00,9.254987887175047945e-09,1.156679374503255531e-08,2.796175479888916016e+00,-1.918613910675048828e-02,-1.982893981039524078e-02
4.494000000000000000e+03,7.099999904632568359e+00,2.200000047683715820e+00,9.388401167598203756e-09,1.190094067737845762e-08,2.795989513397216797e+00,-1.894510909914970398e-02,-1.976410299539566040e-02
4.495000000000000000e+03,7.199999809265136719e+00,2.200000047683715820e+00,9.521802901701903465e-09,1.223985002241079201e-08,2.795823335647583008e+00,-1.872075907886028290e-02,-1.970466598868370056e-02
4.496000000000000000e+03,7.300000190734863281e+00,2.200000047683715820e+00,9.655194865842986474e-09,1.258352266830797817e-08,2.795674800872802734e+00,-1.851237751543521881e-02,-1.965039223432540894e-02
4.497000000000000000e+03,7.400000095367431641e+00,2.200000047683715820e+00,9.788577948199872480e-09,1.293195595053475699e-08,2.795542716979980469e+00,-1.831923052668571472e-02,-1.960069499909877777e-02
4.498000000000000000e+03,7.500000000000000000e+00,2.200000047683715820e+00,9.921952148772561486e-09,1.328515075726954819e-08,2.795425653457641602e+00,-1.814057119190692902e-02,-1.955552957952022552e-02
4.499000000000000000e+03,7.599999904632568359e+00,2.200000047683715820e+00,1.005531924391789289e-08,1.364310708851235177e-08,2.795321941375732422e+00,-1.797565072774887085e-02,-1.951450854539871216e-02
4.500000000000000000e+03,7.699999809265136719e+00,2.200000047683715820e+00,1.018868012181428639e-08,1.400582583244158741e-08,2.795230865478515625e+00,-1.782371476292610168e-02,-1.947733946144580841e-02
4.501000000000000000e+03,7.800000190734863281e+00,2.200000047683715820e+00,1.032203567064016170e-08,1.437330698905725512e-08,2.795150756835937500e+00,-1.768402382731437683e-02,-1.944383420050144196e-02
4.502000000000000000e+03,7.900000095367431641e+00,2.200000047683715820e+00,1.045538589039551880e-08,1.474554789382409581e-08,2.795080900192260742e+00,-1.755585148930549622e-02,-1.941345073282718658e-02
4.503000000000000000e+03,8.000000000000000000e+00,2.200000047683715820e+00,1.058873078108035770e-08,1.512255032309894887e-08,2.795020341873168945e+00,-1.743848063051700592e-02,-1.938620768487453461e-02
4.504000000000000000e+03,8.100000381469726562e+00,2.200000047683715820e+00,1.072207300722993750e-08,1.550431427688181429e-08,2.794967889785766602e+00,-1.733122020959854126e-02,-1.936187036335468292e-02
4.505000000000000000e+03,8.199999809265136719e+00,2.200000047683715820e+00,1.085540990430899910e-08,1.589083709063743299e-08,2.794922828674316406e+00,-1.723340339958667755e-02,-1.933983899652957916e-02
4.506000000000000000e+03,8.300000190734863281e+00,2.200000047683715820e+00,1.098874502503122130e-08,1.628212231707948376e-08,2.794884443283081055e+00,-1.714438386261463165e-02,-1.932054013013839722e-02
4.507000000000000000e+03,8.399999618530273438e+00,2.200000047683715820e+00,1.112207570486134500e-08,1.667816640349428781e-08,2.794851779937744141e+00,-1.706354320049285889e-02,-1.930304244160652161e-02
4.508000000000000000e+03,8.500000000000000000e+00,2.200000047683715820e+00,1.125540638469146870e-08,1.707897290259552392e-08,2.794824600219726562e+00,-1.699029095470905304e-02,-1.928788609802722931e-02
4.509000000000000000e+03,8.600000381469726562e+00,2.200000047683715820e+00,1.138873439998633330e-08,1.748454003802635270e-08,2.794801950454711914e+00,-1.692406460642814636e-02,-1.927434839308261871e-02
4.510000000000000000e+03,8.699999809265136719e+00,2.200000047683715820e+00,1.152205886256751910e-08,1.789486425707309536e-08,2.794783592224121094e+00,-1.686433143913745880e-02,-1.926226355135440826e-02
4.511000000000000000e+03,8.800000190734863281e+00,2.200000047683715820e+00,1.165538421332712460e-08,1.830995266516310949e-08,2.794768810272216797e+00,-1.681058108806610107e-02,-1.925202645361423492e-02
4.512000000000000000e+03,8.899999618530273438e+00,2.200000047683715820e+00,1.178870689955147100e-08,1.872979638051219808e-08,2.794757366180419922e+00,-1.676234230399131775e-02,-1.924276538193225861e-02
4.513000000000000000e+03,9.000000000000000000e+00,2.200000047683715820e+00,1.192202958577581740e-08,1.915440428490455815e-08,2.794748783111572266e+00,-1.671915873885154724e-02,-1.923507824540138245e-02
4.514000000000000000e+03,9.100000381469726562e+00,2.200000047683715820e+00,1.205535138382174409e-08,1.958377282562651089e-08,2.794742345809936523e+00,-1.668061502277851105e-02,-1.922829821705818176e-02
4.515000000000000000e+03,9.199999809265136719e+00,2.200000047683715820e+00,1.218867051733241169e-08,2.001789667360753810e-08,2.794738292694091797e+00,-1.664631068706512451e-02,-1.922231167554855347e-02
4.516000000000000000e+03,9.300000190734863281e+00,2.200000047683715820e+00,1.232199142719991869e-08,2.045678293427499739e-08,2.794735908508300781e+00,-1.661587692797183990e-02,-1.921756565570831299e-02
4.517000000000000000e+03,9.399999618530273438e+00,2.200000047683715820e+00,1.245531056071058629e-08,2.090042627855837054e-08,2.794735193252563477e+00,-1.658896915614604950e-02,-1.921323500573635101e-02
4.518000000000000000e+03,9.500000000000000000e+00,2.200000047683715820e+00,1.258862969422125389e-08,2.134883381188501517e-08,2.794735908508300781e+00,-1.656526699662208557e-02,-1.920996233820915222e-02
4.519000000000000000e+03,9.600000381469726562e+00,2.200000047683715820e+00,1.272194971591034118e-08,2.180200020518441306e-08,2.794737577438354492e+00,-1.654447242617607117e-02,-1.920712366700172424e-02
4.520000000000000000e+03,9.699999809265136719e+00,2.200000047683715820e+00,1.285526796124258908e-08,2.225992190574288543e-08,2.794740200042724609e+00,-1.652630791068077087e-02,-1.920464634895324707e-02
4.521000000000000000e+03,9.800000190734863281e+00,2.200000047683715820e+00,1.298858709475325668e-08,2.272260779534462927e-08,2.794743537902832031e+00,-1.651051826775074005e-02,-1.920301467180252075e-02
4.522000000000000000e+03,9.899999618530273438e+00,2.200000047683715820e+00,1.312190534008550458e-08,2.319004721584860818e-08,2.794747591018676758e+00,-1.649686880409717560e-02,-1.920143514871597290e-02
4.523000000000000000e+03,1.000000000000000000e+01,2.200000047683715820e+00,1.325522447359617217e-08,2.366225260175269796e-08,2.794752120971679688e+00,-1.648514159023761749e-02,-1.920058950781822205e-02
4.524000000000000000e+03,1.010000038146972656e+01,2.200000047683715820e+00,1.338854449528525947e-08,2.413921507127270161e-08,2.794756889343261719e+00,-1.647513732314109802e-02,-1.919988170266151428e-02
4.525000000000000000e+03,1.019999980926513672e+01,2.200000047683715820e+00,1.352186274061750737e-08,2.462093462440861913e-08,2.794762134552001953e+00,-1.646667160093784332e-02,-1.919925399124622345e-02
4.526000000000000000e+03,1.030000019073486328e+01,2.200000047683715820e+00,1.365518276230659467e-08,2.510741659023096872e-08,2.794767379760742188e+00,-1.645957678556442261e-02,-1.919924654066562653e-02
4.527000000000000000e+03,1.039999961853027344e+01,2.200000047683715820e+00,1.378850100763884257e-08,2.559865386331239279e-08,2.794772863388061523e+00,-1.645370200276374817e-02,-1.919905468821525574e-02
4.528000000000000000e+03,1.050000000000000000e+01,2.200000047683715820e+00,1.392182102932792986e-08,2.609465354908024892e-08,2.794778347015380859e+00,-1.644890755414962769e-02,-1.919941604137420654e-02
4.529000000000000000e+03,1.060000038146972656e+01,2.200000047683715820e+00,1.405514193919543686e-08,2.659541387117769773e-08,2.794783830642700195e+00,-1.644506305456161499e-02,-1.919972896575927734e-02
4.530000000000000000e+03,1.069999980926513672e+01,2.200000047683715820e+00,1.418846107270610446e-08,2.710092950053422101e-08,2.794789314270019531e+00,-1.644205674529075623e-02,-1.919996552169322968e-02
4.531000000000000000e+03,1.080000019073486328e+01,2.200000047683715820e+00,1.432178198257361146e-08,2.761120754257717635e-08,2.794794797897338867e+00,-1.643978059291839600e-02,-1.920068264007568359e-02
4.532000000000000000e+03,1.089999961853027344e+01,2.200000047683715820e+00,1.445510200426269876e-08,2.812624089187920617e-08,2.794800043106079102e+00,-1.643814332783222198e-02,-1.920109242200851440e-02
4.533000000000000000e+03,1.100000000000000000e+01,2.200000047683715820e+00,1.458842291413020575e-08,2.864603665386766806e-08,2.794805049896240234e+00,-1.643705926835536957e-02,-1.920194551348686218e-02
4.534000000000000000e+03,1.110000038146972656e+01,2.200000047683715820e+00,1.472174471217613245e-08,2.917059305218572263e-08,2.794810056686401367e+00,-1.643645018339157104e-02,-1.920264959335327148e-02
4.535000000000000000e+03,1.119999980926513672e+01,2.200000047683715820e+00,1.485506473386521975e-08,2.969990298140601226e-08,2.794814825057983398e+00,-1.643624901771545410e-02,-1.920319348573684692e-02
4.536000000000000000e+03,1.130000019073486328e+01,2.200000047683715820e+00,1.498838742008956615e-08,3.023397709966957336e-08,2.794819355010986328e+00,-1.643639244139194489e-02,-1.920414157211780548e-02
4.537000000000000000e+03,1.139999961853027344e+01,2.200000047683715820e+00,1.512170832995707315e-08,3.077280652519220894e-08,2.794823646545410156e+00,-1.643682830035686493e-02,-1.920471712946891785e-02
4.538000000000000000e+03,1.150000000000000000e+01,2.200000047683715820e+00,1.525503101618141955e-08,3.131640013975811598e-08,2.794827938079833984e+00,-1.643750630319118500e-02,-1.920568011701107025e-02
4.539000000000000000e+03,1.160000038146972656e+01,2.200000047683715820e+00,1.538835192604892654e-08,3.186475083793993690e-08,2.794831752777099609e+00,-1.643838174641132355e-02,-1.920644566416740417e-02
4.540000000000000000e+03,1.169999980926513672e+01,2.200000047683715820e+00,1.552167461227327294e-08,3.241785506702399289e-08,2.794835567474365234e+00,-1.643941923975944519e-02,-1.920701004564762115e-02
4.541000000000000000e+03,1.180000019073486328e+01,2.200000047683715820e+00,1.565499729849761934e-08,3.297572703786499915e-08,2.794839143753051758e+00,-1.644058339297771454e-02,-1.920794136822223663e-02
4.542000000000000000e+03,1.189999961853027344e+01,2.200000047683715820e+00,1.578831820836512634e-08,3.353834898689456168e-08,2.794842481613159180e+00,-1.644184440374374390e-02,-1.920847222208976746e-02
4.543000000000000000e+03,1.200000000000000000e+01,2.200000047683715820e+00,1.592164267094631214e-08,3.410573867768107448e-08,2.794845581054687500e+00,-1.644317805767059326e-02,-1.920936256647109985e-02
4.544000000000000000e+03,1.210000038146972656e+01,2.200000047683715820e+00,1.605496535717065854e-08,3.467788545208350115e-08,2.794848442077636719e+00,-1.644456200301647186e-02,-1.921003870666027069e-02
4.545000000000000000e+03,1.219999980926513672e+01,2.200000047683715820e+00,1.618828804339500493e-08,3.525478575738816289e-08,2.794851303100585938e+00,-1.644597575068473816e-02,-1.921049319207668304e-02
4.546000000000000000e+03,1.230000019073486328e+01,2.200000047683715820e+00,1.632161250597619073e-08,3.583645025173609611e-08,2.794853687286376953e+00,-1.644740253686904907e-02,-1.921130530536174774e-02
4.547000000000000000e+03,1.239999961853027344e+01,2.200000047683715820e+00,1.645493519220053713e-08,3.642287182969994319e-08,2.794856071472167969e+00,-1.644882932305335999e-02,-1.921170391142368317e-02
4.548000000000000000e+03,1.250000000000000000e+01,2.200000047683715820e+00,1.658825787842488353e-08,3.701405404399338295e-08,2.794858455657958984e+00,-1.645024307072162628e-02,-1.921245828270912170e-02
4.549000000000000000e+03,1.260000038146972656e+01,2.200000047683715820e+00,1.672158234100606933e-08,3.760999689461641537e-08,2.794860363006591797e+00,-1.645163446664810181e-02,-1.921298913657665253e-02
4.550000000000000000e+03,1.269999980926513672e+01,2.200000047683715820e+00,1.685490502723041573e-08,3.821069327614168287e-08,2.794862270355224609e+00,-1.645299606025218964e-02,-1.921329833567142487e-02
4.551000000000000000e+03,1.280000019073486328e+01,2.200000047683715820e+00,1.698822948981160152e-08,3.881615384671022184e-08,2.794863939285278320e+00,-1.645431853830814362e-02,-1.921396329998970032e-02
4.552000000000000000e+03,1.289999961853027344e+01,2.200000047683715820e+00,1.712155217603594792e-08,3.942636794818099588e-08,2.794865608215332031e+00,-1.645560003817081451e-02,-1.921421289443969727e-02
4.553000000000000000e+03,1.300000000000000000e+01,2.200000047683715820e+00,1.725487841497397312e-08,4.004134623869504139e-08,2.794867038726806641e+00,-1.645683497190475464e-02,-1.921482011675834656e-02
4.554000000000000000e+03,1.310000038146972656e+01,2.200000047683715820e+00,1.738820287755515892e-08,4.066108516553867958e-08,2.794868469238281250e+00,-1.645802147686481476e-02,-1.921520754694938660e-02
4.555000000000000000e+03,1.319999980926513672e+01,2.200000047683715820e+00,1.752152556377950532e-08,4.128557762328455283e-08,2.794869661331176758e+00,-1.645915582776069641e-02,-1.921537704765796661e-02
4.556000000000000000e+03,1.330000019073486328e+01,2.200000047683715820e+00,1.765485002636069112e-08,4.191483427007369755e-08,2.794870853424072266e+00,-1.646023616194725037e-02,-1.921590417623519897e-02
4.557000000000000000e+03,1.339999961853027344e+01,2.200000047683715820e+00,1.778817448894187692e-08,4.254884089505139855e-08,2.794871807098388672e+00,-1.646126434206962585e-02,-1.921602338552474976e-02
4.558000000000000000e+03,1.350000000000000000e+01,2.200000047683715820e+00,1.792149895152306271e-08,4.318761881449972861e-08,2.794872760772705078e+00,-1.646223850548267365e-02,-1.921650394797325134e-02
4.559000000000000000e+03,1.360000038146972656e+01,2.200000047683715820e+00,1.805482341410424851e-08,4.383115026485029375e-08,2.794873714447021484e+00,-1.646316051483154297e-02,-1.921677216887474060e-02
4.560000000000000000e+03,1.369999980926513672e+01,2.200000047683715820e+00,1.818814787668543431e-08,4.447943879881677276e-08,2.794874429702758789e+00,-1.646403223276138306e-02,-1.921682804822921753e-02
4.561000000000000000e+03,1.380000019073486328e+01,2.200000047683715820e+00,1.832147233926662011e-08,4.513248796911284444e-08,2.794875144958496094e+00,-1.646485179662704468e-02,-1.921724900603294373e-02
4.562000000000000000e+03,1.389999961853027344e+01,2.200000047683715820e+00,1.845479680184780591e-08,4.579029422302482999e-08,2.794875621795654297e+00,-1.646562479436397552e-02,-1.921726949512958527e-02
4.563000000000000000e+03,1.400000000000000000e+01,2.200000047683715820e+00,1.858812126442899171e-08,4.645286466598008701e-08,2.794876337051391602e+00,-1.646635308861732483e-02,-1.921766065061092377e-02
4.564000000000000000e+03,1.410000038146972656e+01,2.200000047683715820e+00,1.872144572701017751e-08,4.712019219255125790e-08,2.794876813888549805e+00,-1.646703667938709259e-02,-1.921784877777099609e-02
4.565000000000000000e+03,1.419999980926513672e+01,2.200000047683715820e+00,1.885477018959136331e-08,4.779227325002466387e-08,2.794877290725708008e+00,-1.646768115460872650e-02,-1.921783201396465302e-02
4.566000000000000000e+03,1.430000019073486328e+01,2.200000047683715820e+00,1.898809465217254910e-08,4.846912204925502010e-08,2.794877529144287109e+00,-1.646829023957252502e-02,-1.921819522976875305e-02
4.567000000000000000e+03,1.439999961853027344e+01,2.200000047683715820e+00,1.912141911475373490e-08,4.915072082667393261e-08,2.794878005981445312e+00,-1.646886579692363739e-02,-1.921816729009151459e-02
4.568000000000000000e+03,1.450000000000000000e+01,2.200000047683715820e+00,1.925474535369176010e-08,4.983708734584979538e-08,2.794878244400024414e+00,-1.646941155195236206e-02,-1.921852305531501770e-02
4.569000000000000000e+03,1.460000038146972656e+01,2.200000047683715820e+00,1.938806981627294590e-08,5.052821094864157203e-08,2.794878482818603516e+00,-1.646993309259414673e-02,-1.921869069337844849e-02
4.570000000000000000e+03,1.469999980926513672e+01,2.200000047683715820e+00,1.952139427885413170e-08,5.122408808233558375e-08,2.794878959655761719e+00,-1.647043414413928986e-02,-1.921867206692695618e-02
4.571000000000000000e+03,1.480000019073486328e+01,2.200000047683715820e+00,1.965471874143531750e-08,5.192472940507286694e-08,2.794879198074340820e+00,-1.647092029452323914e-02,-1.921904832124710083e-02
4.572000000000000000e+03,1.489999961853027344e+01,2.200000047683715820e+00,1.978804320401650330e-08,5.263012425871238520e-08,2.794879198074340820e+00,-1.647139713168144226e-02,-1.921905949711799622e-02
4.573000000000000000e+03,1.500000000000000000e+01,2.200000047683715820e+00,1.992136766659768909e-08,5.334028685410885373e-08,2.794879436492919922e+00,-1.647187024354934692e-02,-1.921947672963142395e-02
4.574000000000000000e+03,1.510000038146972656e+01,2.200000047683715820e+00,2.005469390553571429e-08,5.405520653312123613e-08,2.794879674911499023e+00,-1.647234708070755005e-02,-1.921973377466201782e-02
4.575000000000000000e+03,1.519999980926513672e+01,2.200000047683715820e+00,2.018801836811690009e-08,5.477487974303585361e-08,2.794879913330078125e+00,-1.647283323109149933e-02,-1.921983808279037476e-02
4.576000000000000000e+03,1.530000019073486328e+01,2.200000047683715820e+00,2.032134283069808589e-08,5.549931714199374255e-08,2.794880151748657227e+00,-1.647333800792694092e-02,-1.922037638723850250e-02
4.577000000000000000e+03,1.539999961853027344e+01,2.200000047683715820e+00,2.045466729327927169e-08,5.622850451914018777e-08,2.794880390167236328e+00,-1.647387072443962097e-02,-1.922059059143066406e-02
4.578000000000000000e+03,1.550000000000000000e+01,2.200000047683715820e+00,2.058799353221729689e-08,5.696246319075726205e-08,2.794880628585815430e+00,-1.647443696856498718e-02,-1.922126114368438721e-02
4.579000000000000000e+03,1.560000038146972656e+01,2.200000047683715820e+00,2.072131799479848269e-08,5.770117894599025021e-08,2.794880867004394531e+00,-1.647505350410938263e-02,-1.922182925045490265e-02
4.580000000000000000e+03,1.569999980926513672e+01,2.200000047683715820e+00,2.085464245737966849e-08,5.844464467941179464e-08,2.794881105422973633e+00,-1.647572591900825500e-02,-1.922231167554855347e-02
4.581000000000000000e+03,1.580000019073486328e+01,2.200000047683715820e+00,2.098796869631769368e-08,5.919287815459028934e-08,2.794881582260131836e+00,-1.647647097706794739e-02,-1.922330260276794434e-02
4.582000000000000000e+03,1.589999961853027344e+01,2.200000047683715820e+00,2.112129138254204008e-08,5.994586160795734031e-08,2.794881820678710938e+00,-1.647730171680450439e-02,-1.922405883669853210e-02
4.583000000000000000e+03,1.600000000000000000e+01,2.200000047683715820e+00,2.125461762148006528e-08,6.070361280308134155e-08,2.794882297515869141e+00,-1.647823303937911987e-02,-1.922537386417388916e-02
4.584000000000000000e+03,1.610000038146972656e+01,2.200000047683715820e+00,2.138794386041809048e-08,6.146612463453493547e-08,2.794883012771606445e+00,-1.647928170859813690e-02,-1.922669820487499237e-02
4.585000000000000000e+03,1.620000076293945312e+01,2.200000047683715820e+00,2.152126832299927628e-08,6.223339710231812205e-08,2.794883728027343750e+00,-1.648046448826789856e-02,-1.922825910151004791e-02
4.586000000000000000e+03,1.629999923706054688e+01,2.200000047683715820e+00,2.165459278558046208e-08,6.300540889014882850e-08,2.794884443283081055e+00,-1.648180186748504639e-02,-1.922971196472644806e-02
4.587000000000000000e+03,1.639999961853027344e+01,2.200000047683715820e+00,2.178791724816164788e-08,6.378219552516384283e-08,2.794885396957397461e+00,-1.648331433534622192e-02,-1.923224702477455139e-02
4.588000000000000000e+03,1.650000000000000000e+01,2.200000047683715820e+00,2.192124348709967308e-08,6.456374279650844983e-08,2.794886589050292969e+00,-1.648502424359321594e-02,-1.923476345837116241e-02
4.589000000000000000e+03,1.660000038146972656e+01,2.200000047683715820e+00,2.205456972603769827e-08,6.535004359875529190e-08,2.794887781143188477e+00,-1.648695021867752075e-02,-1.923769339919090271e-02
4.590000000000000000e+03,1.670000076293945312e+01,2.200000047683715820e+00,2.218789596497572347e-08,6.614111214275908424e-08,2.794889211654663086e+00,-1.648911461234092712e-02,-1.924109645187854767e-02
4.591000000000000000e+03,1.679999923706054688e+01,2.200000047683715820e+00,2.232121865120006987e-08,6.693691290138303884e-08,2.794891119003295898e+00,-1.649154163897037506e-02,-1.924465037882328033e-02
4.592000000000000000e+03,1.689999961853027344e+01,2.200000047683715820e+00,2.245454489013809507e-08,6.773749561261865892e-08,2.794893264770507812e+00,-1.649424992501735687e-02,-1.924957707524299622e-02
4.593000000000000000e+03,1.700000000000000000e+01,2.200000047683715820e+00,2.258787112907612027e-08,6.854283896018387168e-08,2.794895648956298828e+00,-1.649725809693336487e-02,-1.925479806959629059e-02
4.594000000000000000e+03,1.710000038146972656e+01,2.200000047683715820e+00,2.272119914437098487e-08,6.935293583865131950e-08,2.794898271560668945e+00,-1.650057733058929443e-02,-1.926077529788017273e-02
4.595000000000000000e+03,1.720000076293945312e+01,2.200000047683715820e+00,2.285452538330901007e-08,7.016779335344835999e-08,2.794901609420776367e+00,-1.650421693921089172e-02,-1.926759071648120880e-02
4.596000000000000000e+03,1.729999923706054688e+01,2.200000047683715820e+00,2.298784984589019587e-08,7.098739729372027796e-08,2.794905185699462891e+00,-1.650817692279815674e-02,-1.927494257688522339e-02
4.597000000000000000e+03,1.739999961853027344e+01,2.200000047683715820e+00,2.312117786118506046e-08,7.181176897574914619e-08,2.794909238815307617e+00,-1.651244610548019409e-02,-1.928407140076160431e-02
4.598000000000000000e+03,1.750000000000000000e+01,2.200000047683715820e+00,2.325450410012308566e-08,7.264090129410760710e-08,2.794914007186889648e+00,-1.651699841022491455e-02,-1.929390430450439453e-02
4.599000000000000000e+03,1.760000038146972656e+01,2.200000047683715820e+00,2.338783211541795026e-08,7.347479424879566068e-08,2.794919252395629883e+00,-1.652179099619388580e-02,-1.930490136146545410e-02
4.600000000000000000e+03,1.770000076293945312e+01,2.200000047683715820e+00,2.352116190706965426e-08,7.431344783981330693e-08,2.794925212860107422e+00,-1.652675494551658630e-02,-1.931713148951530457e-02
4.601000000000000000e+03,1.779999923706054688e+01,2.200000047683715820e+00,2.365448636965084006e-08,7.515683364545111544e-08,2.794931650161743164e+00,-1.653179712593555450e-02,-1.933025568723678589e-02
4.602000000000000000e+03,1.789999961853027344e+01,2.200000047683715820e+00,2.378781616130254406e-08,7.600500140370058944e-08,2.794938802719116211e+00,-1.653679274022579193e-02,-1.934545300900936127e-02
4.603000000000000000e+03,1.800000000000000000e+01,2.200000047683715820e+00,2.392114595295424806e-08,7.685792979827965610e-08,2.794946670532226562e+00,-1.654157601296901703e-02,-1.936156861484050751e-02
4.604000000000000000e+03,1.810000038146972656e+01,2.200000047683715820e+00,2.405447574460595206e-08,7.771561172376095783e-08,2.794955015182495117e+00,-1.654594019055366516e-02,-1.937893219292163849e-02
4.605000000000000000e+03,1.820000076293945312e+01,2.200000047683715820e+00,2.418780553625765606e-08,7.857805428557185223e-08,2.794964075088500977e+00,-1.654963195323944092e-02,-1.939744316041469574e-02
4.606000000000000000e+03,1.829999923706054688e+01,2.200000047683715820e+00,2.432113532790936006e-08,7.944523616743026651e-08,2.794973850250244141e+00,-1.655234582722187042e-02,-1.941654644906520844e-02
4.607000000000000000e+03,1.839999961853027344e+01,2.200000047683715820e+00,2.445446689591790346e-08,8.031720000190034625e-08,2.794983863830566406e+00,-1.655373163521289825e-02,-1.943713799118995667e-02
4.608000000000000000e+03,1.850000000000000000e+01,2.200000047683715820e+00,2.458779846392644686e-08,8.119391736727266107e-08,2.794994115829467773e+00,-1.655339449644088745e-02,-1.945771835744380951e-02
4.609000000000000000e+03,1.860000038146972656e+01,2.200000047683715820e+00,2.472113003193499026e-08,8.207539536897456856e-08,2.795004367828369141e+00,-1.655090227723121643e-02,-1.947820559144020081e-02
4.610000000000000000e+03,1.870000076293945312e+01,2.200000047683715820e+00,2.485446337630037306e-08,8.296162690157871111e-08,2.795014858245849609e+00,-1.654580421745777130e-02,-1.949801482260227203e-02
4.611000000000000000e+03,1.879999923706054688e+01,2.200000047683715820e+00,2.498779316795207706e-08,8.385260485965773114e-08,2.795024871826171875e+00,-1.653765514492988586e-02,-1.951604522764682770e-02
4.612000000000000000e+03,1.889999961853027344e+01,2.200000047683715820e+00,2.512112651231745986e-08,8.474835766492105904e-08,2.795034408569335938e+00,-1.652603782713413239e-02,-1.953259296715259552e-02
4.613000000000000000e+03,1.900000000000000000e+01,2.200000047683715820e+00,2.525446163303968206e-08,8.564887821194133721e-08,2.795043468475341797e+00,-1.651060767471790314e-02,-1.954552717506885529e-02
4.614000000000000000e+03,1.910000038146972656e+01,2.200000047683715820e+00,2.538779497740506486e-08,8.655415228986385046e-08,2.795051336288452148e+00,-1.649112440645694733e-02,-1.955413445830345154e-02
4.615000000000000000e+03,1.920000076293945312e+01,2.200000047683715820e+00,2.552112832177044766e-08,8.746418700411595637e-08,2.795058012008666992e+00,-1.646750792860984802e-02,-1.955724321305751801e-02
4.616000000000000000e+03,1.929999923706054688e+01,2.200000047683715820e+00,2.565445988977899106e-08,8.837896814384293975e-08,2.795063495635986328e+00,-1.643986627459526062e-02,-1.955325715243816376e-02
4.617000000000000000e+03,1.939999961853027344e+01,2.200000047683715820e+00,2.578779323414437386e-08,8.929853123618158861e-08,2.795067548751831055e+00,-1.640852726995944977e-02,-1.954213529825210571e-02
4.618000000000000000e+03,1.950000000000000000e+01,2.200000047683715820e+00,2.592112657850975665e-08,9.022286207027718774e-08,2.795070409774780273e+00,-1.637405715882778168e-02,-1.952162012457847595e-02
4.619000000000000000e+03,1.960000038146972656e+01,2.200000047683715820e+00,2.605445814651830005e-08,9.115195354070237954e-08,2.795072078704833984e+00,-1.633725687861442566e-02,-1.949115470051765442e-02
4.620000000000000000e+03,1.970000076293945312e+01,2.200000047683715820e+00,2.618779149088368285e-08,9.208581275288452161e-08,2.795073032379150391e+00,-1.629911921918392181e-02,-1.945003308355808258e-02
4.621000000000000000e+03,1.979999923706054688e+01,2.200000047683715820e+00,2.632111950617854745e-08,9.302441839054154116e-08,2.795073270797729492e+00,-1.626078598201274872e-02,-1.939746737480163574e-02
4.622000000000000000e+03,1.989999961853027344e+01,2.200000047683715820e+00,2.645445107418709085e-08,9.396781308623758378e-08,2.795073509216308594e+00,-1.622346229851245880e-02,-1.933454908430576324e-02
4.623000000000000000e+03,2.000000000000000000e+01,2.200000047683715820e+00,2.658778086583879485e-08,9.491598262911793427e-08,2.795073986053466797e+00,-1.618832908570766449e-02,-1.926041208207607269e-02
4.624000000000000000e+03,0.000000000000000000e+00,2.299999952316284180e+00,1.183201716583828294e-37,2.970752744368612190e-38,2.539160728454589844e+00,7.617481946945190430e-01,-1.128741875290870667e-01
4.625000000000000000e+03,1.000000014901161194e-01,2.299999952316284180e+00,1.100302973733313650e-10,-1.397489936272311439e-11,2.522134542465209961e+00,7.049940228462219238e-01,-1.460853219032287598e-01
4.626000000000000000e+03,2.000000029802322388e-01,2.299999952316284180e+00,2.216058864190628697e-10,-2.066387339016984015e-11,2.540744781494140625e+00,6.588580012321472168e-01,-1.212548464536666870e-01
4.627000000000000000e+03,3.000000119209289551e-01,2.299999952316284180e+00,3.347178645363158012e-10,-2.031410629987906447e-11,2.559239625930786133e+00,6.129611134529113770e-01,-9.921178221702575684e-02
4.628000000000000000e+03,4.000000059604644775e-01,2.299999952316284180e+00,4.493452276932430323e-10,-1.316949240631748452e-11,2.577457666397094727e+00,5.676113963127136230e-01,-7.989958673715591431e-02
4.629000000000000000e+03,5.000000000000000000e-01,2.299999952316284180e+00,5.654548496103473099e-10,5.324060419961695878e-13,2.595236301422119141e+00,5.231133699417114258e-01,-6.322340667247772217e-02
4.630000000000000000e+03,6.000000238418579102e-01,2.299999952316284180e+00,6.830020438108874714e-10,2.056322820354061776e-11,2.612417459487915039e+00,4.797574281692504883e-01,-4.905300959944725037e-02
4.631000000000000000e+03,6.999999880790710449e-01,2.299999952316284180e+00,8.019310770990273340e-10,4.670636100101432930e-11,2.628853559494018555e+00,4.378098845481872559e-01,-3.722742944955825806e-02
4.632000000000000000e+03,8.000000119209289551e-01,2.299999952316284180e+00,9.221768904055238636e-10,7.875917973354518153e-11,2.644412994384765625e+00,3.975050151348114014e-01,-2.756115794181823730e-02
4.633000000000000000e+03,8.999999761581420898e-01,2.299999952316284180e+00,1.043666042477298106e-09,1.165346152909307875e-10,2.658984184265136719e+00,3.590394258499145508e-01,-1.985100097954273224e-02
4.634000000000000000e+03,1.000000000000000000e+00,2.299999952316284180e+00,1.166318819301181975e-09,1.598624427279204951e-10,2.672479152679443359e+00,3.225683569908142090e-01,-1.388357672840356827e-02
4.635000000000000000e+03,1.100000023841857910e+00,2.299999952316284180e+00,1.290050954949606421e-09,2.085897427006599969e-10,2.684834480285644531e+00,2.882049679756164551e-01,-9.442245587706565857e-03
4.636000000000000000e+03,1.200000047683715820e+00,2.299999952316284180e+00,1.414774963848230982e-09,2.625810957557206393e-10,2.696012020111083984e+00,2.560211122035980225e-01,-6.313704885542392731e-03
4.637000000000000000e+03,1.299999952316284180e+00,2.299999952316284180e+00,1.540402583266597958e-09,3.217181243631017651e-10,2.705997467041015625e+00,2.260501682758331299e-01,-4.293356556445360184e-03
4.638000000000000000e+03,1.399999976158142090e+00,2.299999952316284180e+00,1.666846105585761961e-09,3.858990904603842864e-10,2.714799165725708008e+00,1.982907056808471680e-01,-3.189775627106428146e-03
4.639000000000000000e+03,1.500000000000000000e+00,2.299999952316284180e+00,1.794019044432104693e-09,4.550374799183742880e-10,2.722444534301757812e+00,1.727114468812942505e-01,-2.827537013217806816e-03
4.640000000000000000e+03,1.600000023841857910e+00,2.299999952316284180e+00,1.921838022056476802e-09,5.290610172181686721e-10,2.728977441787719727e+00,1.492560356855392456e-01,-3.049402032047510147e-03
4.641000000000000000e+03,1.700000047683715820e+00,2.299999952316284180e+00,2.050223990579524980e-09,6.079102221612231460e-10,2.734455108642578125e+00,1.278480589389801025e-01,-3.717055777087807655e-03
4.642000000000000000e+03,1.799999952316284180e+00,2.299999952316284180e+00,2.179101121768667326e-09,6.915370498461470561e-10,2.738944053649902344e+00,1.083958223462104797e-01,-4.711111541837453842e-03
4.643000000000000000e+03,1.899999976158142090e+00,2.299999952316284180e+00,2.308400137707167232e-09,7.799038082012543782e-10,2.742518424987792969e+00,9.079653024673461914e-02,-5.930573679506778717e-03
4.644000000000000000e+03,2.000000000000000000e+00,2.299999952316284180e+00,2.438056201370386589e-09,8.729811318275437770e-10,2.745255708694458008e+00,7.494027167558670044e-02,-7.291394285857677460e-03
4.645000000000000000e+03,2.099999904632568359e+00,2.299999952316284180e+00,2.568009360714995637e-09,9.707470383091276744e-10,2.747235298156738281e+00,6.071314588189125061e-02,-8.725217543542385101e-03
4.646000000000000000e+03,2.200000047683715820e+00,2.299999952316284180e+00,2.698206547080417295e-09,1.073186539635173631e-09,2.748536348342895508e+00,4.799985513091087341e-02,-1.017770823091268539e-02
4.647000000000000000e+03,2.299999952316284180e+00,2.299999952316284180e+00,2.828598466564358205e-09,1.180288533575435395e-09,2.749236106872558594e+00,3.668610751628875732e-02,-1.160645391792058945e-02
4.648000000000000000e+03,2.400000095367431641e+00,2.299999952316284180e+00,2.959142042513462911e-09,1.292047580037092303e-09,2.749408960342407227e+00,2.666000835597515106e-02,-1.297987811267375946e-02
4.649000000000000000e+03,2.500000000000000000e+00,2.299999952316284180e+00,3.089797973032659684e-09,1.408460459373372942e-09,2.749124765396118164e+00,1.781360059976577759e-02,-1.427485607564449310e-02
4.650000000000000000e+03,2.599999904632568359e+00,2.299999952316284180e+00,3.220532951431209767e-09,1.529527171584277312e-09,2.748449563980102539e+00,1.004357449710369110e-02,-1.547593995928764343e-02
4.651000000000000000e+03,2.700000047683715820e+00,2.299999952316284180e+00,3.351317445776658133e-09,1.655250381205064514e-09,2.747443914413452148e+00,3.251999383792281151e-03,-1.657352596521377563e-02
4.652000000000000000e+03,2.799999952316284180e+00,2.299999952316284180e+00,3.482124810716413776e-09,1.785632863793296110e-09,2.746163129806518555e+00,-2.653256058692932129e-03,-1.756265759468078613e-02
4.653000000000000000e+03,2.900000095367431641e+00,2.299999952316284180e+00,3.612933729968403895e-09,1.920680059441792764e-09,2.744657754898071289e+00,-7.758442778140306473e-03,-1.844247430562973022e-02
4.654000000000000000e+03,3.000000000000000000e+00,2.299999952316284180e+00,3.743724885652000012e-09,2.060397186198770214e-09,2.742972850799560547e+00,-1.214375812560319901e-02,-1.921461522579193115e-02
4.655000000000000000e+03,3.099999904632568359e+00,2.299999952316284180e+00,3.874482512600252448e-09,2.204790128246258973e-09,2.741149425506591797e+00,-1.588350906968116760e-02,-1.988319307565689087e-02
4.656000000000000000e+03,3.200000047683715820e+00,2.299999952316284180e+00,4.005193954270680479e-09,2.353865546922406793e-09,2.739223003387451172e+00,-1.904622092843055725e-02,-2.045370824635028839e-02
4.657000000000000000e+03,3.299999952316284180e+00,2.299999952316284180e+00,4.135848108433037851e-09,2.507629659476151573e-09,2.737224817276000977e+00,-2.169482968747615814e-02,-2.093254961073398590e-02
4.658000000000000000e+03,3.400000095367431641e+00,2.299999952316284180e+00,4.266436093303127564e-09,2.666088905201036141e-09,2.735182762145996094e+00,-2.388698235154151917e-02,-2.132706530392169952e-02
4.659000000000000000e+03,3.500000000000000000e+00,2.299999952316284180e+00,4.396951247542801866e-09,2.829248835212183621e-09,2.733120203018188477e+00,-2.567528560757637024e-02,-2.164453640580177307e-02
4.660000000000000000e+03,3.599999904632568359e+00,2.299999952316284180e+00,4.527389130259962258e-09,2.997115888803136841e-09,2.731057643890380859e+00,-2.710762061178684235e-02,-2.189263701438903809e-02
4.661000000000000000e+03,3.700000047683715820e+00,2.299999952316284180e+00,4.657745300562510238e-09,3.169696061178228774e-09,2.729012250900268555e+00,-2.822743915021419525e-02,-2.207878604531288147e-02
4.662000000000000000e+03,3.799999952316284180e+00,2.299999952316284180e+00,4.788017538004396556e-09,3.346993571184952998e-09,2.726998329162597656e+00,-2.907406538724899292e-02,-2.220999076962471008e-02
4.663000000000000000e+03,3.900000095367431641e+00,2.299999952316284180e+00,4.918204954407201512e-09,3.529014414027642488e-09,2.725028276443481445e+00,-2.968300133943557739e-02,-2.229323983192443848e-02
4.664000000000000000e+03,4.000000000000000000e+00,2.299999952316284180e+00,5.048306661592505407e-09,3.715761920375371119e-09,2.723111629486083984e+00,-3.008621186017990112e-02,-2.233471162617206573e-02
4.665000000000000000e+03,4.099999904632568359e+00,2.299999952316284180e+00,5.178323103649518089e-09,3.907241197254052167e-09,2.721256256103515625e+00,-3.031239472329616547e-02,-2.234045788645744324e-02
4.666000000000000000e+03,4.199999809265136719e+00,2.299999952316284180e+00,5.308255612845869109e-09,4.103455353288154583e-09,2.719468355178833008e+00,-3.038726374506950378e-02,-2.231585793197154999e-02
4.667000000000000000e+03,4.300000190734863281e+00,2.299999952316284180e+00,5.438106409627607718e-09,4.304409273458986718e-09,2.717752218246459961e+00,-3.033377975225448608e-02,-2.226593345403671265e-02
4.668000000000000000e+03,4.400000095367431641e+00,2.299999952316284180e+00,5.567875938083943765e-09,4.510103845944968270e-09,2.716111183166503906e+00,-3.017239645123481750e-02,-2.219486981630325317e-02
4.669000000000000000e+03,4.500000000000000000e+00,2.299999952316284180e+00,5.697567306839346202e-09,4.720543067548987892e-09,2.714547395706176758e+00,-2.992127649486064911e-02,-2.210692316293716431e-02
4.670000000000000000e+03,4.599999904632568359e+00,2.299999952316284180e+00,5.827183624518283978e-09,4.935729158717094833e-09,2.713062047958374023e+00,-2.959649823606014252e-02,-2.200555428862571716e-02
4.671000000000000000e+03,4.699999809265136719e+00,2.299999952316284180e+00,5.956727111566806343e-09,5.155664783984548194e-09,2.711655378341674805e+00,-2.921224944293498993e-02,-2.189388684928417206e-02
4.672000000000000000e+03,4.800000190734863281e+00,2.299999952316284180e+00,6.086202208877011799e-09,5.380352607886607075e-09,2.710327148437500000e+00,-2.878099679946899414e-02,-2.177474834024906158e-02
4.673000000000000000e+03,4.900000095367431641e+00,2.299999952316284180e+00,6.215609804627320045e-09,5.609791742244851775e-09,2.709076166152954102e+00,-2.831366844475269318e-02,-2.165024913847446442e-02
4.674000000000000000e+03,5.000000000000000000e+00,2.299999952316284180e+00,6.344954783799039433e-09,5.843985739772961097e-09,2.707900762557983398e+00,-2.781977690756320953e-02,-2.152270823717117310e-02
4.675000000000000000e+03,5.099999904632568359e+00,2.299999952316284180e+00,6.474240255016638912e-09,6.082935044560144888e-09,2.706799268722534180e+00,-2.730758301913738251e-02,-2.139378897845745087e-02
4.676000000000000000e+03,5.199999809265136719e+00,2.299999952316284180e+00,6.603468882815377583e-09,6.326641432963242551e-09,2.705769300460815430e+00,-2.678421139717102051e-02,-2.126497589051723480e-02
4.677000000000000000e+03,5.300000190734863281e+00,2.299999952316284180e+00,6.732644663998144097e-09,6.575106681339093484e-09,2.704808712005615234e+00,-2.625577151775360107e-02,-2.113759331405162811e-02
4.678000000000000000e+03,5.400000095367431641e+00,2.299999952316284180e+00,6.861769819010987703e-09,6.828329013330858288e-09,2.703914165496826172e+00,-2.572747133672237396e-02,-2.101239375770092010e-02
4.679000000000000000e+03,5.500000000000000000e+00,2.299999952316284180e+00,6.990848344656797053e-09,7.086310649384586213e-09,2.703083515167236328e+00,-2.520370110869407654e-02,-2.089048177003860474e-02
4.680000000000000000e+03,5.599999904632568359e+00,2.299999952316284180e+00,7.119882461381621397e-09,7.349052033589487110e-09,2.702313423156738281e+00,-2.468813024461269379e-02,-2.077243290841579437e-02
4.681000000000000000e+03,5.699999809265136719e+00,2.299999952316284180e+00,7.248875277809929685e-09,7.616553610034770827e-09,2.701601266860961914e+00,-2.418379858136177063e-02,-2.065875940024852753e-02
4.682000000000000000e+03,5.800000190734863281e+00,2.299999952316284180e+00,7.377830790744610567e-09,7.888817599166486616e-09,2.700943708419799805e+00,-2.369316667318344116e-02,-2.054993622004985809e-02
4.683000000000000000e+03,5.900000095367431641e+00,2.299999952316284180e+00,7.506749888364083745e-09,8.165841336449375376e-09,2.700337648391723633e+00,-2.321821823716163635e-02,-2.044597081840038300e-02
4.684000000000000000e+03,6.000000000000000000e+00,2.299999952316284180e+00,7.635636123382028018e-09,8.447625710061856807e-09,2.699780702590942383e+00,-2.276048064231872559e-02,-2.034731209278106689e-02
4.685000000000000000e+03,6.099999904632568359e+00,2.299999952316284180e+00,7.764491272155282786e-09,8.734171608182350610e-09,2.699269533157348633e+00,-2.232111245393753052e-02,-2.025396749377250671e-02
4.686000000000000000e+03,6.199999809265136719e+00,2.299999952316284180e+00,7.893317999219107151e-09,9.025479030810856784e-09,2.698801279067993164e+00,-2.190093323588371277e-02,-2.016597054898738861e-02
4.687000000000000000e+03,6.300000190734863281e+00,2.299999952316284180e+00,8.022119857287179912e-09,9.321549754304214730e-09,2.698373317718505859e+00,-2.150047570466995239e-02,-2.008337527513504028e-02
4.688000000000000000e+03,6.400000095367431641e+00,2.299999952316284180e+00,8.150896846359501069e-09,9.622380225948745647e-09,2.697983026504516602e+00,-2.112003415822982788e-02,-2.000583894550800323e-02
4.689000000000000000e+03,6.500000000000000000e+00,2.299999952316284180e+00,8.279651630971329723e-09,9.927972222101288935e-09,2.697627782821655273e+00,-2.075968310236930847e-02,-1.993351615965366364e-02
4.690000000000000000e+03,6.599999904632568359e+00,2.299999952316284180e+00,8.408386875657924975e-09,1.023832663094026429e-08,2.697305202484130859e+00,-2.041931636631488800e-02,-1.986617222428321838e-02
4.691000000000000000e+03,6.699999809265136719e+00,2.299999952316284180e+00,8.537102580419286824e-09,1.055344167610883233e-08,2.697012662887573242e+00,-2.009868435561656952e-02,-1.980363950133323669e-02
4.692000000000000000e+03,6.800000190734863281e+00,2.299999952316284180e+00,8.665802297969094070e-09,1.087332002214225213e-08,2.696748256683349609e+00,-1.979740522801876068e-02,-1.974580995738506317e-02
4.693000000000000000e+03,6.900000095367431641e+00,2.299999952316284180e+00,8.794486028307346714e-09,1.119795900450526460e-08,2.696509599685668945e+00,-1.951500214636325836e-02,-1.969221606850624084e-02
4.694000000000000000e+03,7.000000000000000000e+00,2.299999952316284180e+00,8.923156435969303857e-09,1.152735862319786975e-08,2.696294784545898438e+00,-1.925090700387954712e-02,-1.964291185140609741e-02
4.695000000000000000e+03,7.099999904632568359e+00,2.299999952316284180e+00,9.051813520954965497e-09,1.186151976639848726e-08,2.696102142333984375e+00,-1.900449395179748535e-02,-1.959759555757045746e-02
4.696000000000000000e+03,7.199999809265136719e+00,2.299999952316284180e+00,9.180459059621171036e-09,1.220044243410711715e-08,2.695929527282714844e+00,-1.877508312463760376e-02,-1.955604366958141327e-02
4.697000000000000000e+03,7.300000190734863281e+00,2.299999952316284180e+00,9.309094828324759874e-09,1.254412751450217911e-08,2.695775270462036133e+00,-1.856195367872714996e-02,-1.951812580227851868e-02
4.698000000000000000e+03,7.400000095367431641e+00,2.299999952316284180e+00,9.437720827065732010e-09,1.289257234304841404e-08,2.695637941360473633e+00,-1.836437173187732697e-02,-1.948335021734237671e-02
4.699000000000000000e+03,7.500000000000000000e+00,2.299999952316284180e+00,9.566338832200926845e-09,1.324577780792424164e-08,2.695516109466552734e+00,-1.818157918751239777e-02,-1.945177651941776276e-02
4.700000000000000000e+03,7.599999904632568359e+00,2.299999952316284180e+00,9.694948843730344379e-09,1.360374390912966192e-08,2.695408344268798828e+00,-1.801281049847602844e-02,-1.942310854792594910e-02
4.701000000000000000e+03,7.699999809265136719e+00,2.299999952316284180e+00,9.823551749832404312e-09,1.396647064666467486e-08,2.695313453674316406e+00,-1.785730943083763123e-02,-1.939714141190052032e-02
4.702000000000000000e+03,7.800000190734863281e+00,2.299999952316284180e+00,9.952149326863946044e-09,1.433396068506453958e-08,2.695230007171630859e+00,-1.771431788802146912e-02,-1.937377080321311951e-02
4.703000000000000000e+03,7.900000095367431641e+00,2.299999952316284180e+00,1.008074157482496958e-08,1.470620869525873786e-08,2.695157051086425781e+00,-1.758309453725814819e-02,-1.935253851115703583e-02
4.704000000000000000e+03,8.000000000000000000e+00,2.299999952316284180e+00,1.020932849371547491e-08,1.508321645360410912e-08,2.695093631744384766e+00,-1.746291667222976685e-02,-1.933353766798973083e-02
4.705000000000000000e+03,8.100000381469726562e+00,2.299999952316284180e+00,1.033791185989230144e-08,1.546498751281433215e-08,2.695038795471191406e+00,-1.735307648777961731e-02,-1.931660436093807220e-02
4.706000000000000000e+03,8.199999809265136719e+00,2.299999952316284180e+00,1.046649078517702947e-08,1.585151565564046905e-08,2.694991588592529297e+00,-1.725289225578308105e-02,-1.930120773613452911e-02
4.707000000000000000e+03,8.300000190734863281e+00,2.299999952316284180e+00,1.059506793410491809e-08,1.624280621115303802e-08,2.694951295852661133e+00,-1.716170646250247955e-02,-1.928783953189849854e-02
4.708000000000000000e+03,8.399999618530273438e+00,2.299999952316284180e+00,1.072363975396228852e-08,1.663885385028152086e-08,2.694916963577270508e+00,-1.707888953387737274e-02,-1.927562616765499115e-02
4.709000000000000000e+03,8.500000000000000000e+00,2.299999952316284180e+00,1.085221157381965895e-08,1.703966390209643578e-08,2.694888353347778320e+00,-1.700383611023426056e-02,-1.926516555249691010e-02
4.710000000000000000e+03,8.600000381469726562e+00,2.299999952316284180e+00,1.098078072914177028e-08,1.744523636659778276e-08,2.694864511489868164e+00,-1.693597435951232910e-02,-1.925578340888023376e-02
4.711000000000000000e+03,8.699999809265136719e+00,2.299999952316284180e+00,1.110934721992862251e-08,1.785556236200136482e-08,2.694844961166381836e+00,-1.687475666403770447e-02,-1.924736797809600830e-02
4.712000000000000000e+03,8.800000190734863281e+00,2.299999952316284180e+00,1.123791282253705504e-08,1.827065432280505775e-08,2.694829463958740234e+00,-1.681966520845890045e-02,-1.924035511910915375e-02
4.713000000000000000e+03,8.899999618530273438e+00,2.299999952316284180e+00,1.136647664878864816e-08,1.869049981451098574e-08,2.694817066192626953e+00,-1.677021384239196777e-02,-1.923391595482826233e-02
4.714000000000000000e+03,9.000000000000000000e+00,2.299999952316284180e+00,1.149504047504024129e-08,1.911511127161702461e-08,2.694807767868041992e+00,-1.672594062983989716e-02,-1.922868750989437103e-02
4.715000000000000000e+03,9.100000381469726562e+00,2.299999952316284180e+00,1.162360252493499502e-08,1.954447981233897735e-08,2.694800853729248047e+00,-1.668641716241836548e-02,-1.922403834760189056e-02
4.716000000000000000e+03,9.199999809265136719e+00,2.299999952316284180e+00,1.175216368665132904e-08,1.997860543667684396e-08,2.694796323776245117e+00,-1.665123738348484039e-02,-1.921988837420940399e-02
4.717000000000000000e+03,9.300000190734863281e+00,2.299999952316284180e+00,1.188072484836766307e-08,2.041749525005798205e-08,2.694793462753295898e+00,-1.662002131342887878e-02,-1.921671442687511444e-02
4.718000000000000000e+03,9.399999618530273438e+00,2.299999952316284180e+00,1.200928512190557740e-08,2.086113859434135520e-08,2.694792509078979492e+00,-1.659241691231727600e-02,-1.921371929347515106e-02
4.719000000000000000e+03,9.500000000000000000e+00,2.299999952316284180e+00,1.213784539544349173e-08,2.130954790402483923e-08,2.694792747497558594e+00,-1.656809821724891663e-02,-1.921157166361808777e-02
4.720000000000000000e+03,9.600000381469726562e+00,2.299999952316284180e+00,1.226640566898140605e-08,2.176271429732423712e-08,2.694794416427612305e+00,-1.654675602912902832e-02,-1.920966990292072296e-02
4.721000000000000000e+03,9.699999809265136719e+00,2.299999952316284180e+00,1.239496505434090068e-08,2.222063777423954889e-08,2.694796800613403320e+00,-1.652811095118522644e-02,-1.920796185731887817e-02
4.722000000000000000e+03,9.800000190734863281e+00,2.299999952316284180e+00,1.252352532787881501e-08,2.268332366384129273e-08,2.694800138473510742e+00,-1.651190035045146942e-02,-1.920695230364799500e-02
4.723000000000000000e+03,9.899999618530273438e+00,2.299999952316284180e+00,1.265208382505988993e-08,2.315076486070211104e-08,2.694804191589355469e+00,-1.649788208305835724e-02,-1.920586638152599335e-02
4.724000000000000000e+03,1.000000000000000000e+01,2.299999952316284180e+00,1.278064409859780426e-08,2.362297024660620082e-08,2.694808721542358398e+00,-1.648583635687828064e-02,-1.920539885759353638e-02
4.725000000000000000e+03,1.010000038146972656e+01,2.299999952316284180e+00,1.290920437213571859e-08,2.409993449248304387e-08,2.694813489913940430e+00,-1.647555455565452576e-02,-1.920497231185436249e-02
4.726000000000000000e+03,1.019999980926513672e+01,2.299999952316284180e+00,1.303776375749521321e-08,2.458165226926212199e-08,2.694818735122680664e+00,-1.646685041487216949e-02,-1.920453831553459167e-02
4.727000000000000000e+03,1.030000019073486328e+01,2.299999952316284180e+00,1.316632491921154724e-08,2.506813423508447158e-08,2.694823980331420898e+00,-1.645955629646778107e-02,-1.920465007424354553e-02
4.728000000000000000e+03,1.039999961853027344e+01,2.299999952316284180e+00,1.329488430457104187e-08,2.555937150816589565e-08,2.694829463958740234e+00,-1.645351015031337738e-02,-1.920451410114765167e-02
4.729000000000000000e+03,1.050000000000000000e+01,2.299999952316284180e+00,1.342344457810895619e-08,2.605537297029059118e-08,2.694835186004638672e+00,-1.644857041537761688e-02,-1.920487917959690094e-02
4.730000000000000000e+03,1.060000038146972656e+01,2.299999952316284180e+00,1.355200573982529022e-08,2.655613329238803999e-08,2.694840669631958008e+00,-1.644460856914520264e-02,-1.920514553785324097e-02
4.731000000000000000e+03,1.069999980926513672e+01,2.299999952316284180e+00,1.368056601336320455e-08,2.706164892174456327e-08,2.694846391677856445e+00,-1.644150353968143463e-02,-1.920530013740062714e-02
4.732000000000000000e+03,1.080000019073486328e+01,2.299999952316284180e+00,1.380912806325795827e-08,2.757192696378751862e-08,2.694851875305175781e+00,-1.643915101885795593e-02,-1.920590177178382874e-02
4.733000000000000000e+03,1.089999961853027344e+01,2.299999952316284180e+00,1.393768833679587260e-08,2.808696031308954844e-08,2.694857120513916016e+00,-1.643745414912700653e-02,-1.920616999268531799e-02
4.734000000000000000e+03,1.100000000000000000e+01,2.299999952316284180e+00,1.406625038669062633e-08,2.860675607507801033e-08,2.694862365722656250e+00,-1.643632352352142334e-02,-1.920686103403568268e-02
4.735000000000000000e+03,1.110000038146972656e+01,2.299999952316284180e+00,1.419481332476379976e-08,2.913131247339606489e-08,2.694867372512817383e+00,-1.643568277359008789e-02,-1.920738816261291504e-02
4.736000000000000000e+03,1.119999980926513672e+01,2.299999952316284180e+00,1.432337448648013378e-08,2.966062240261635452e-08,2.694872379302978516e+00,-1.643545925617218018e-02,-1.920774206519126892e-02
4.737000000000000000e+03,1.130000019073486328e+01,2.299999952316284180e+00,1.445193653637488751e-08,3.019469829723675502e-08,2.694876909255981445e+00,-1.643559150397777557e-02,-1.920849084854125977e-02
4.738000000000000000e+03,1.139999961853027344e+01,2.299999952316284180e+00,1.458049858626964124e-08,3.073352417004571180e-08,2.694881439208984375e+00,-1.643602363765239716e-02,-1.920886151492595673e-02
4.739000000000000000e+03,1.150000000000000000e+01,2.299999952316284180e+00,1.470906152434281466e-08,3.127711778461161884e-08,2.694885730743408203e+00,-1.643670536577701569e-02,-1.920961774885654449e-02
4.740000000000000000e+03,1.160000038146972656e+01,2.299999952316284180e+00,1.483762535059440779e-08,3.182546848279343976e-08,2.694889783859252930e+00,-1.643759198486804962e-02,-1.921017467975616455e-02
4.741000000000000000e+03,1.169999980926513672e+01,2.299999952316284180e+00,1.496618828866758122e-08,3.237857626459117455e-08,2.694893598556518555e+00,-1.643864251673221588e-02,-1.921053044497966766e-02
4.742000000000000000e+03,1.180000019073486328e+01,2.299999952316284180e+00,1.509475211491917435e-08,3.293644468271850201e-08,2.694897174835205078e+00,-1.643982529640197754e-02,-1.921125873923301697e-02
4.743000000000000000e+03,1.189999961853027344e+01,2.299999952316284180e+00,1.522331416481392807e-08,3.349906663174806454e-08,2.694900751113891602e+00,-1.644110865890979767e-02,-1.921158656477928162e-02
4.744000000000000000e+03,1.200000000000000000e+01,2.299999952316284180e+00,1.535187799106552120e-08,3.406645632253457734e-08,2.694903850555419922e+00,-1.644246652722358704e-02,-1.921228133141994476e-02
4.745000000000000000e+03,1.210000038146972656e+01,2.299999952316284180e+00,1.548044181731711433e-08,3.463860309693700401e-08,2.694906949996948242e+00,-1.644387654960155487e-02,-1.921276561915874481e-02
4.746000000000000000e+03,1.219999980926513672e+01,2.299999952316284180e+00,1.560900564356870746e-08,3.521550340224166575e-08,2.694909811019897461e+00,-1.644531637430191040e-02,-1.921303942799568176e-02
4.747000000000000000e+03,1.230000019073486328e+01,2.299999952316284180e+00,1.573757124617713998e-08,3.579717144930327777e-08,2.694912433624267578e+00,-1.644677296280860901e-02,-1.921367458999156952e-02
4.748000000000000000e+03,1.239999961853027344e+01,2.299999952316284180e+00,1.586613329607189371e-08,3.638358947455344605e-08,2.694914817810058594e+00,-1.644822768867015839e-02,-1.921390369534492493e-02
4.749000000000000000e+03,1.250000000000000000e+01,2.299999952316284180e+00,1.599469889868032624e-08,3.697477168884688581e-08,2.694916963577270508e+00,-1.644967123866081238e-02,-1.921449601650238037e-02
4.750000000000000000e+03,1.260000038146972656e+01,2.299999952316284180e+00,1.612326450128875877e-08,3.757071453946991824e-08,2.694919109344482422e+00,-1.645109243690967560e-02,-1.921487413346767426e-02
4.751000000000000000e+03,1.269999980926513672e+01,2.299999952316284180e+00,1.625182832754035189e-08,3.817141092099518573e-08,2.694921016693115234e+00,-1.645248383283615112e-02,-1.921503618359565735e-02
4.752000000000000000e+03,1.280000019073486328e+01,2.299999952316284180e+00,1.638039215379194502e-08,3.877687149156372470e-08,2.694922924041748047e+00,-1.645383611321449280e-02,-1.921556331217288971e-02
4.753000000000000000e+03,1.289999961853027344e+01,2.299999952316284180e+00,1.650895775640037755e-08,3.938708559303449874e-08,2.694924592971801758e+00,-1.645514555275440216e-02,-1.921568438410758972e-02
4.754000000000000000e+03,1.300000000000000000e+01,2.299999952316284180e+00,1.663752158265197068e-08,4.000206388354854425e-08,2.694926023483276367e+00,-1.645640842616558075e-02,-1.921616867184638977e-02
4.755000000000000000e+03,1.310000038146972656e+01,2.299999952316284180e+00,1.676608718526040320e-08,4.062180281039218244e-08,2.694927453994750977e+00,-1.645762100815773010e-02,-1.921644061803817749e-02
4.756000000000000000e+03,1.319999980926513672e+01,2.299999952316284180e+00,1.689465278786883573e-08,4.124629526813805569e-08,2.694928646087646484e+00,-1.645877957344055176e-02,-1.921650208532810211e-02
4.757000000000000000e+03,1.330000019073486328e+01,2.299999952316284180e+00,1.702321839047726826e-08,4.187555191492720041e-08,2.694929838180541992e+00,-1.645988412201404572e-02,-1.921693049371242523e-02
4.758000000000000000e+03,1.339999961853027344e+01,2.299999952316284180e+00,1.715178221672886139e-08,4.250955853990490141e-08,2.694931030273437500e+00,-1.646093465387821198e-02,-1.921695657074451447e-02
4.759000000000000000e+03,1.350000000000000000e+01,2.299999952316284180e+00,1.728034781933729391e-08,4.314833290663955268e-08,2.694931983947753906e+00,-1.646193116903305054e-02,-1.921734958887100220e-02
4.760000000000000000e+03,1.360000038146972656e+01,2.299999952316284180e+00,1.740891342194572644e-08,4.379186790970379661e-08,2.694932699203491211e+00,-1.646287180483341217e-02,-1.921753771603107452e-02
4.761000000000000000e+03,1.369999980926513672e+01,2.299999952316284180e+00,1.753747902455415897e-08,4.444015289095659682e-08,2.694933652877807617e+00,-1.646376028656959534e-02,-1.921751908957958221e-02
4.762000000000000000e+03,1.380000019073486328e+01,2.299999952316284180e+00,1.766604462716259150e-08,4.509320561396634730e-08,2.694934368133544922e+00,-1.646459847688674927e-02,-1.921787112951278687e-02
4.763000000000000000e+03,1.389999961853027344e+01,2.299999952316284180e+00,1.779460845341418462e-08,4.575101186787833285e-08,2.694935083389282227e+00,-1.646538451313972473e-02,-1.921783015131950378e-02
4.764000000000000000e+03,1.400000000000000000e+01,2.299999952316284180e+00,1.792317583237945655e-08,4.641357875811991107e-08,2.694935560226440430e+00,-1.646612398326396942e-02,-1.921816356480121613e-02
4.765000000000000000e+03,1.410000038146972656e+01,2.299999952316284180e+00,1.805174143498788908e-08,4.708090983740476076e-08,2.694936037063598633e+00,-1.646681874990463257e-02,-1.921829953789710999e-02
4.766000000000000000e+03,1.419999980926513672e+01,2.299999952316284180e+00,1.818030526123948221e-08,4.775299089487816673e-08,2.694936513900756836e+00,-1.646747067570686340e-02,-1.921823620796203613e-02
4.767000000000000000e+03,1.430000019073486328e+01,2.299999952316284180e+00,1.830887264020475413e-08,4.842983969410852296e-08,2.694936990737915039e+00,-1.646808348596096039e-02,-1.921855658292770386e-02
4.768000000000000000e+03,1.439999961853027344e+01,2.299999952316284180e+00,1.843743646645634726e-08,4.911143847152743547e-08,2.694937229156494141e+00,-1.646866090595722198e-02,-1.921849139034748077e-02
4.769000000000000000e+03,1.450000000000000000e+01,2.299999952316284180e+00,1.856600384542161919e-08,4.979780143798961944e-08,2.694937705993652344e+00,-1.646920479834079742e-02,-1.921881549060344696e-02
4.770000000000000000e+03,1.460000038146972656e+01,2.299999952316284180e+00,1.869456944803005172e-08,5.048892859349507489e-08,2.694937944412231445e+00,-1.646971888840198517e-02,-1.921895518898963928e-02
4.771000000000000000e+03,1.469999980926513672e+01,2.299999952316284180e+00,1.882313327428164484e-08,5.118480572718908661e-08,2.694938182830810547e+00,-1.647020876407623291e-02,-1.921891421079635620e-02
4.772000000000000000e+03,1.480000019073486328e+01,2.299999952316284180e+00,1.895170065324691677e-08,5.188544704992636980e-08,2.694938421249389648e+00,-1.647067815065383911e-02,-1.921927370131015778e-02
4.773000000000000000e+03,1.489999961853027344e+01,2.299999952316284180e+00,1.908026447949850990e-08,5.259084190356588806e-08,2.694938659667968750e+00,-1.647113263607025146e-02,-1.921926997601985931e-02
4.774000000000000000e+03,1.500000000000000000e+01,2.299999952316284180e+00,1.920883185846378183e-08,5.330100449896235659e-08,2.694938898086547852e+00,-1.647157408297061920e-02,-1.921968162059783936e-02
4.775000000000000000e+03,1.510000038146972656e+01,2.299999952316284180e+00,1.933739746107221436e-08,5.401592417797473900e-08,2.694939136505126953e+00,-1.647201180458068848e-02,-1.921993680298328400e-02
4.776000000000000000e+03,1.519999980926513672e+01,2.299999952316284180e+00,1.946596306368064688e-08,5.473559383517567767e-08,2.694939374923706055e+00,-1.647244952619075775e-02,-1.922004483640193939e-02
4.777000000000000000e+03,1.530000019073486328e+01,2.299999952316284180e+00,1.959452866628907941e-08,5.546003123413356661e-08,2.694939374923706055e+00,-1.647289469838142395e-02,-1.922059245407581329e-02
4.778000000000000000e+03,1.539999961853027344e+01,2.299999952316284180e+00,1.972309426889751194e-08,5.618922216399369063e-08,2.694939613342285156e+00,-1.647335290908813477e-02,-1.922082528471946716e-02
4.779000000000000000e+03,1.550000000000000000e+01,2.299999952316284180e+00,1.985165987150594447e-08,5.692317728289708612e-08,2.694939851760864258e+00,-1.647383160889148712e-02,-1.922152377665042877e-02
4.780000000000000000e+03,1.560000038146972656e+01,2.299999952316284180e+00,1.998022725047121639e-08,5.766189303813007427e-08,2.694940090179443359e+00,-1.647434197366237640e-02,-1.922212727367877960e-02
4.781000000000000000e+03,1.569999980926513672e+01,2.299999952316284180e+00,2.010879107672280952e-08,5.840536232426529750e-08,2.694940328598022461e+00,-1.647489145398139954e-02,-1.922265440225601196e-02
4.782000000000000000e+03,1.580000019073486328e+01,2.299999952316284180e+00,2.023735845568808145e-08,5.915359579944379220e-08,2.694940567016601562e+00,-1.647548936307430267e-02,-1.922370493412017822e-02
4.783000000000000000e+03,1.589999961853027344e+01,2.299999952316284180e+00,2.036592405829651398e-08,5.990657570009716437e-08,2.694940805435180664e+00,-1.647614687681198120e-02,-1.922453194856643677e-02
4.784000000000000000e+03,1.600000000000000000e+01,2.299999952316284180e+00,2.049448966090494650e-08,6.066432689522116561e-08,2.694941043853759766e+00,-1.647687517106533051e-02,-1.922593079507350922e-02
4.785000000000000000e+03,1.610000038146972656e+01,2.299999952316284180e+00,2.062305703987021843e-08,6.142683872667475953e-08,2.694941520690917969e+00,-1.647768728435039520e-02,-1.922735758125782013e-02
4.786000000000000000e+03,1.620000076293945312e+01,2.299999952316284180e+00,2.075162264247865096e-08,6.219411119445794611e-08,2.694941997528076172e+00,-1.647859811782836914e-02,-1.922904141247272491e-02
4.787000000000000000e+03,1.629999923706054688e+01,2.299999952316284180e+00,2.088018646873024409e-08,6.296612298228865257e-08,2.694942474365234375e+00,-1.647962257266044617e-02,-1.923063583672046661e-02
4.788000000000000000e+03,1.639999961853027344e+01,2.299999952316284180e+00,2.100875384769551601e-08,6.374290961730366689e-08,2.694942951202392578e+00,-1.648077368736267090e-02,-1.923333667218685150e-02
4.789000000000000000e+03,1.650000000000000000e+01,2.299999952316284180e+00,2.113731945030394854e-08,6.452445688864827389e-08,2.694943666458129883e+00,-1.648206822574138641e-02,-1.923604495823383331e-02
4.790000000000000000e+03,1.660000038146972656e+01,2.299999952316284180e+00,2.126588682926922047e-08,6.531075769089511596e-08,2.694944620132446289e+00,-1.648352295160293579e-02,-1.923919655382633209e-02
4.791000000000000000e+03,1.670000076293945312e+01,2.299999952316284180e+00,2.139445243187765300e-08,6.610182623489890830e-08,2.694945573806762695e+00,-1.648515462875366211e-02,-1.924285292625427246e-02
4.792000000000000000e+03,1.679999923706054688e+01,2.299999952316284180e+00,2.152301803448608553e-08,6.689763409895022050e-08,2.694946765899658203e+00,-1.648698002099990845e-02,-1.924669370055198669e-02
4.793000000000000000e+03,1.689999961853027344e+01,2.299999952316284180e+00,2.165158363709451805e-08,6.769820970475848299e-08,2.694948196411132812e+00,-1.648901216685771942e-02,-1.925194822251796722e-02
4.794000000000000000e+03,1.700000000000000000e+01,2.299999952316284180e+00,2.178015101605978998e-08,6.850355305232369574e-08,2.694949626922607422e+00,-1.649126596748828888e-02,-1.925753429532051086e-02
4.795000000000000000e+03,1.710000038146972656e+01,2.299999952316284180e+00,2.190871839502506191e-08,6.931364993079114356e-08,2.694951534271240234e+00,-1.649374887347221375e-02,-1.926391758024692535e-02
4.796000000000000000e+03,1.720000076293945312e+01,2.299999952316284180e+00,2.203728577399033384e-08,7.012850744558818405e-08,2.694953680038452148e+00,-1.649647019803524017e-02,-1.927118375897407532e-02
4.797000000000000000e+03,1.729999923706054688e+01,2.299999952316284180e+00,2.216585137659876636e-08,7.094811138586010202e-08,2.694956064224243164e+00,-1.649942435324192047e-02,-1.927903108298778534e-02
4.798000000000000000e+03,1.739999961853027344e+01,2.299999952316284180e+00,2.229441875556403829e-08,7.177248306788897025e-08,2.694958686828613281e+00,-1.650260575115680695e-02,-1.928869634866714478e-02
4.799000000000000000e+03,1.750000000000000000e+01,2.299999952316284180e+00,2.242298613452931022e-08,7.260161538624743116e-08,2.694961786270141602e+00,-1.650599390268325806e-02,-1.929910480976104736e-02
4.800000000000000000e+03,1.760000038146972656e+01,2.299999952316284180e+00,2.255155351349458215e-08,7.343550834093548474e-08,2.694965362548828125e+00,-1.650955528020858765e-02,-1.931071281433105469e-02
4.801000000000000000e+03,1.770000076293945312e+01,2.299999952316284180e+00,2.268012266881669348e-08,7.427416193195313099e-08,2.694969177246093750e+00,-1.651323959231376648e-02,-1.932357810437679291e-02
4.802000000000000000e+03,1.779999923706054688e+01,2.299999952316284180e+00,2.280868827142512600e-08,7.511754773759093951e-08,2.694973468780517578e+00,-1.651697419583797455e-02,-1.933735422790050507e-02
4.803000000000000000e+03,1.789999961853027344e+01,2.299999952316284180e+00,2.293725742674723733e-08,7.596571549584041350e-08,2.694977998733520508e+00,-1.652066595852375031e-02,-1.935320720076560974e-02
4.804000000000000000e+03,1.800000000000000000e+01,2.299999952316284180e+00,2.306582658206934866e-08,7.681864389041948016e-08,2.694983243942260742e+00,-1.652419380843639374e-02,-1.936995610594749451e-02
4.805000000000000000e+03,1.810000038146972656e+01,2.299999952316284180e+00,2.319439573739145999e-08,7.767632581590078189e-08,2.694988727569580078e+00,-1.652740314602851868e-02,-1.938791759312152863e-02
4.806000000000000000e+03,1.820000076293945312e+01,2.299999952316284180e+00,2.332296489271357132e-08,7.853876837771167629e-08,2.694994688034057617e+00,-1.653010584414005280e-02,-1.940695755183696747e-02
4.807000000000000000e+03,1.829999923706054688e+01,2.299999952316284180e+00,2.345153404803568264e-08,7.940595025957009057e-08,2.695001125335693359e+00,-1.653208211064338684e-02,-1.942649297416210175e-02
4.808000000000000000e+03,1.839999961853027344e+01,2.299999952316284180e+00,2.358010320335779397e-08,8.027791409404017031e-08,2.695007801055908203e+00,-1.653307676315307617e-02,-1.944738999009132385e-02
4.809000000000000000e+03,1.850000000000000000e+01,2.299999952316284180e+00,2.370867413503674470e-08,8.115463145941248513e-08,2.695014476776123047e+00,-1.653280481696128845e-02,-1.946811378002166748e-02
4.810000000000000000e+03,1.860000038146972656e+01,2.299999952316284180e+00,2.383724506671569543e-08,8.203610235568703501e-08,2.695021390914916992e+00,-1.653095893561840057e-02,-1.948855631053447723e-02
4.811000000000000000e+03,1.870000076293945312e+01,2.299999952316284180e+00,2.396581599839464616e-08,8.292234099371853517e-08,2.695028305053710938e+00,-1.652722246944904327e-02,-1.950810290873050690e-02
4.812000000000000000e+03,1.879999923706054688e+01,2.299999952316284180e+00,2.409438515371675749e-08,8.381331895179755520e-08,2.695034980773925781e+00,-1.652128249406814575e-02,-1.952563971281051636e-02
4.813000000000000000e+03,1.889999961853027344e+01,2.299999952316284180e+00,2.422295786175254761e-08,8.470907175706088310e-08,2.695041418075561523e+00,-1.651285588741302490e-02,-1.954146474599838257e-02
4.814000000000000000e+03,1.900000000000000000e+01,2.299999952316284180e+00,2.435152879343149834e-08,8.560959230408116127e-08,2.695047378540039062e+00,-1.650170609354972839e-02,-1.955345645546913147e-02
4.815000000000000000e+03,1.910000038146972656e+01,2.299999952316284180e+00,2.448010150146728847e-08,8.651486638200367452e-08,2.695052862167358398e+00,-1.648768782615661621e-02,-1.956094056367874146e-02
4.816000000000000000e+03,1.920000076293945312e+01,2.299999952316284180e+00,2.460867243314623920e-08,8.742490109625578043e-08,2.695057630538940430e+00,-1.647075451910495758e-02,-1.956280134618282318e-02
4.817000000000000000e+03,1.929999923706054688e+01,2.299999952316284180e+00,2.473724158846835053e-08,8.833968223598276381e-08,2.695061445236206055e+00,-1.645100116729736328e-02,-1.955752074718475342e-02
4.818000000000000000e+03,1.939999961853027344e+01,2.299999952316284180e+00,2.486581429650414066e-08,8.925925243374877027e-08,2.695064783096313477e+00,-1.642867550253868103e-02,-1.954515092074871063e-02
4.819000000000000000e+03,1.950000000000000000e+01,2.299999952316284180e+00,2.499438522818309139e-08,9.018357616241701180e-08,2.695066928863525391e+00,-1.640418358147144318e-02,-1.952353678643703461e-02
4.820000000000000000e+03,1.960000038146972656e+01,2.299999952316284180e+00,2.512295615986204211e-08,9.111267473826956120e-08,2.695068597793579102e+00,-1.637808978557586670e-02,-1.949222199618816376e-02
4.821000000000000000e+03,1.970000076293945312e+01,2.299999952316284180e+00,2.525152709154099284e-08,9.204653395045170328e-08,2.695069789886474609e+00,-1.635108888149261475e-02,-1.945058815181255341e-02
4.822000000000000000e+03,1.979999923706054688e+01,2.299999952316284180e+00,2.538009447050626477e-08,9.298513958810872282e-08,2.695070505142211914e+00,-1.632397063076496124e-02,-1.939790695905685425e-02
4.823000000000000000e+03,1.989999961853027344e+01,2.299999952316284180e+00,2.550866540218521550e-08,9.392853428380476544e-08,2.695071220397949219e+00,-1.629756391048431396e-02,-1.933530345559120178e-02
4.824000000000000000e+03,2.000000000000000000e+01,2.299999952316284180e+00,2.563723455750732683e-08,9.487670382668511593e-08,2.695071935653686523e+00,-1.627269387245178223e-02,-1.926196180284023285e-02
4.825000000000000000e+03,0.000000000000000000e+00,2.400000095367431641e+00,1.127169396189336158e-37,2.743426540474133011e-38,2.444564819335937500e+00,7.333694696426391602e-01,-1.315250396728515625e-01
4.826000000000000000e+03,1.000000014901161194e-01,2.400000095367431641e+00,1.059311457995981698e-10,-1.628405223164097748e-11,2.428578376770019531e+00,6.800813674926757812e-01,-1.646335422992706299e-01
4.827000000000000000e+03,2.000000029802322388e-01,2.400000095367431641e+00,2.133133947257448426e-10,-2.528639797549914192e-11,2.446049928665161133e+00,6.367420554161071777e-01,-1.396890431642532349e-01
4.828000000000000000e+03,3.000000119209289551e-01,2.400000095367431641e+00,3.221397038011275527e-10,-2.723988916375486014e-11,2.463428258895874023e+00,5.935872793197631836e-01,-1.173710525035858154e-01
4.829000000000000000e+03,4.000000059604644775e-01,2.400000095367431641e+00,4.323923996629730482e-10,-2.237359082724044157e-11,2.480573177337646484e+00,5.508861541748046875e-01,-9.762155264616012573e-02
4.830000000000000000e+03,5.000000000000000000e-01,2.400000095367431641e+00,5.440433104020314659e-10,-1.091023018456871441e-11,2.497341156005859375e+00,5.089073777198791504e-01,-8.035039156675338745e-02
4.831000000000000000e+03,6.000000238418579102e-01,2.400000095367431641e+00,6.570537447458946190e-10,6.936176893262979704e-12,2.513591527938842773e+00,4.679098129272460938e-01,-6.543797254562377930e-02
4.832000000000000000e+03,6.999999880790710449e-01,2.400000095367431641e+00,7.713751304372351569e-10,3.096240625000135083e-11,2.529190778732299805e+00,4.281347095966339111e-01,-5.273933708667755127e-02
4.833000000000000000e+03,8.000000119209289551e-01,2.400000095367431641e+00,8.869503465014361154e-10,6.097786164893648220e-11,2.544017791748046875e+00,3.897981047630310059e-01,-4.208923503756523132e-02
4.834000000000000000e+03,8.999999761581420898e-01,2.400000095367431641e+00,1.003714111824649535e-09,9.680582030435758156e-11,2.557966947555541992e+00,3.530859649181365967e-01,-3.330771252512931824e-02
4.835000000000000000e+03,1.000000000000000000e+00,2.400000095367431641e+00,1.121595483155601869e-09,1.382845227215767636e-10,2.570952415466308594e+00,3.181500434875488281e-01,-2.620617672801017761e-02
4.836000000000000000e+03,1.100000023841857910e+00,2.400000095367431641e+00,1.240518243683652599e-09,1.852675096669642585e-10,2.582909107208251953e+00,2.851066887378692627e-01,-2.059296704828739166e-02
4.837000000000000000e+03,1.200000047683715820e+00,2.400000095367431641e+00,1.360403123484843491e-09,2.376238372736594329e-10,2.593793630599975586e+00,2.540364861488342285e-01,-1.627873815596103668e-02
4.838000000000000000e+03,1.299999952316284180e+00,2.400000095367431641e+00,1.481169187300679368e-09,2.952376398912548439e-10,2.603583574295043945e+00,2.249859720468521118e-01,-1.308086328208446503e-02
4.839000000000000000e+03,1.399999976158142090e+00,2.400000095367431641e+00,1.602735166805757672e-09,3.580079566134486413e-10,2.612277269363403320e+00,1.979700773954391479e-01,-1.082720700651407242e-02
4.840000000000000000e+03,1.500000000000000000e+00,2.400000095367431641e+00,1.725020792875398001e-09,4.258473851326272097e-10,2.619890928268432617e+00,1.729758232831954956e-01,-9.358542971312999725e-03
4.841000000000000000e+03,1.600000023841857910e+00,2.400000095367431641e+00,1.847947794786364284e-09,4.986813739726869699e-10,2.626456499099731445e+00,1.499660164117813110e-01,-8.530576713383197784e-03
4.842000000000000000e+03,1.700000047683715820e+00,2.400000095367431641e+00,1.971441010439889396e-09,5.764472232883122160e-10,2.632018804550170898e+00,1.288834810256958008e-01,-8.214725181460380554e-03
4.843000000000000000e+03,1.799999952316284180e+00,2.400000095367431641e+00,2.095428275339372703e-09,6.590925027971650252e-10,2.636633872985839844e+00,1.096549779176712036e-01,-8.298326283693313599e-03
4.844000000000000000e+03,1.899999976158142090e+00,2.400000095367431641e+00,2.219842976103336696e-09,7.465745244239485601e-10,2.640364408493041992e+00,9.219502657651901245e-02,-8.684401400387287140e-03
4.845000000000000000e+03,2.000000000000000000e+00,2.400000095367431641e+00,2.344621830019377740e-09,8.388584826768408220e-10,2.643278837203979492e+00,7.640948891639709473e-02,-9.290585294365882874e-03
4.846000000000000000e+03,2.099999904632568359e+00,2.400000095367431641e+00,2.469706883445610401e-09,9.359167885136798759e-10,2.645448446273803711e+00,6.219850853085517883e-02,-1.004825811833143234e-02
4.847000000000000000e+03,2.200000047683715820e+00,2.400000095367431641e+00,2.595045511810667449e-09,1.037728125652392919e-09,2.646945238113403320e+00,4.945908486843109131e-02,-1.090125553309917450e-02
4.848000000000000000e+03,2.299999952316284180e+00,2.400000095367431641e+00,2.720588865301465376e-09,1.144275896258761804e-09,2.647840499877929688e+00,3.808746486902236938e-02,-1.180413085967302322e-02
4.849000000000000000e+03,2.400000095367431641e+00,2.400000095367431641e+00,2.846294311353858575e-09,1.255548442991027969e-09,2.648204565048217773e+00,2.798064984381198883e-02,-1.272139232605695724e-02
4.850000000000000000e+03,2.500000000000000000e+00,2.400000095367431641e+00,2.972122326028170392e-09,1.371536884064994410e-09,2.648103475570678711e+00,1.903805322945117950e-02,-1.362539362162351608e-02
4.851000000000000000e+03,2.599999904632568359e+00,2.400000095367431641e+00,3.098038936499847296e-09,1.492235779387840466e-09,2.647600650787353516e+00,1.116237603127956390e-02,-1.449579931795597076e-02
4.852000000000000000e+03,2.700000047683715820e+00,2.400000095367431641e+00,3.224014388791829333e-09,1.617642353402004574e-09,2.646754980087280273e+00,4.260488320142030716e-03,-1.531793735921382904e-02
4.853000000000000000e+03,2.799999952316284180e+00,2.400000095367431641e+00,3.350021149373105800e-09,1.747754607706042407e-09,2.645620822906494141e+00,-1.755975885316729546e-03,-1.608175411820411682e-02
4.854000000000000000e+03,2.900000095367431641e+00,2.400000095367431641e+00,3.476037457872394043e-09,1.882573208433768741e-09,2.644248008728027344e+00,-6.970390211790800095e-03,-1.678138785064220428e-02
4.855000000000000000e+03,3.000000000000000000e+00,2.400000095367431641e+00,3.602043108230645885e-09,2.022098710696695889e-09,2.642682075500488281e+00,-1.146081555634737015e-02,-1.741364970803260803e-02
4.856000000000000000e+03,3.099999904632568359e+00,2.400000095367431641e+00,3.728021891191701798e-09,2.166333334940873101e-09,2.640963554382324219e+00,-1.530004199594259262e-02,-1.797806099057197571e-02
4.857000000000000000e+03,3.200000047683715820e+00,2.400000095367431641e+00,3.853959817945451505e-09,2.315280189790769327e-09,2.639128923416137695e+00,-1.855557039380073547e-02,-1.847581937909126282e-02
4.858000000000000000e+03,3.299999952316284180e+00,2.400000095367431641e+00,3.979845342172438905e-09,2.468941273647828893e-09,2.637210130691528320e+00,-2.128971740603446960e-02,-1.890929974615573883e-02
4.859000000000000000e+03,3.400000095367431641e+00,2.400000095367431641e+00,4.105669582088466996e-09,2.627320583314940450e-09,2.635235786437988281e+00,-2.355983667075634003e-02,-1.928216591477394104e-02
4.860000000000000000e+03,3.500000000000000000e+00,2.400000095367431641e+00,4.231424544087758477e-09,2.790420783327363097e-09,2.633230209350585938e+00,-2.541847154498100281e-02,-1.959832198917865753e-02
4.861000000000000000e+03,3.599999904632568359e+00,2.400000095367431641e+00,4.357104899099795148e-09,2.958245426398775635e-09,2.631214857101440430e+00,-2.691363543272018433e-02,-1.986238360404968262e-02
4.862000000000000000e+03,3.700000047683715820e+00,2.400000095367431641e+00,4.482706650321688358e-09,3.130798287287461790e-09,2.629208087921142578e+00,-2.808905392885208130e-02,-2.007900550961494446e-02
4.863000000000000000e+03,3.799999952316284180e+00,2.400000095367431641e+00,4.608226245039759306e-09,3.308081586439470811e-09,2.627225160598754883e+00,-2.898441255092620850e-02,-2.025271952152252197e-02
4.864000000000000000e+03,3.900000095367431641e+00,2.400000095367431641e+00,4.733663239164798142e-09,3.490099098613086426e-09,2.625278711318969727e+00,-2.963564544916152954e-02,-2.038830518722534180e-02
4.865000000000000000e+03,4.000000000000000000e+00,2.400000095367431641e+00,4.859015412250755617e-09,3.676853044254357883e-09,2.623379707336425781e+00,-3.007518500089645386e-02,-2.048998884856700897e-02
4.866000000000000000e+03,4.099999904632568359e+00,2.400000095367431641e+00,4.984284096565261279e-09,3.868346087898544283e-09,2.621536731719970703e+00,-3.033222444355487823e-02,-2.056209370493888855e-02
4.867000000000000000e+03,4.199999809265136719e+00,2.400000095367431641e+00,5.109468848019105280e-09,4.064581116125509652e-09,2.619756460189819336e+00,-3.043296746909618378e-02,-2.060848847031593323e-02
4.868000000000000000e+03,4.300000190734863281e+00,2.400000095367431641e+00,5.234572331147546720e-09,4.265560793470513090e-09,2.618044376373291016e+00,-3.040085919201374054e-02,-2.063287235796451569e-02
4.869000000000000000e+03,4.400000095367431641e+00,2.400000095367431641e+00,5.359594990039795448e-09,4.471286008111974297e-09,2.616404056549072266e+00,-3.025682829320430756e-02,-2.063829079270362854e-02
4.870000000000000000e+03,4.500000000000000000e+00,2.400000095367431641e+00,5.484539933320320415e-09,4.681758980495942524e-09,2.614838361740112305e+00,-3.001947887241840363e-02,-2.062801457941532135e-02
4.871000000000000000e+03,4.599999904632568359e+00,2.400000095367431641e+00,5.609409381435170872e-09,4.896981042890047320e-09,2.613348722457885742e+00,-2.970531582832336426e-02,-2.060466445982456207e-02
4.872000000000000000e+03,4.699999809265136719e+00,2.400000095367431641e+00,5.734206443008815768e-09,5.116954859829547786e-09,2.611936092376708984e+00,-2.932891249656677246e-02,-2.057065255939960480e-02
4.873000000000000000e+03,4.800000190734863281e+00,2.400000095367431641e+00,5.858933782576514204e-09,5.341681763582073472e-09,2.610600233078002930e+00,-2.890310250222682953e-02,-2.052820660173892975e-02
4.874000000000000000e+03,4.900000095367431641e+00,2.400000095367431641e+00,5.983594508762735131e-09,5.571161310058414529e-09,2.609340667724609375e+00,-2.843914367258548737e-02,-2.047894336283206940e-02
4.875000000000000000e+03,5.000000000000000000e+00,2.400000095367431641e+00,6.108191286102737649e-09,5.805395719704620205e-09,2.608155965805053711e+00,-2.794684655964374542e-02,-2.042477205395698547e-02
4.876000000000000000e+03,5.099999904632568359e+00,2.400000095367431641e+00,6.232728111399410409e-09,6.044385436609900353e-09,2.607044458389282227e+00,-2.743474766612052917e-02,-2.036703191697597504e-02
4.877000000000000000e+03,5.199999809265136719e+00,2.400000095367431641e+00,6.357208093277222360e-09,6.288131348952674671e-09,2.606004476547241211e+00,-2.691021561622619629e-02,-2.030694857239723206e-02
4.878000000000000000e+03,5.300000190734863281e+00,2.400000095367431641e+00,6.481634340360642454e-09,6.536635677178992410e-09,2.605033159255981445e+00,-2.637957222759723663e-02,-2.024564892053604126e-02
4.879000000000000000e+03,5.400000095367431641e+00,2.400000095367431641e+00,6.606009517184929791e-09,6.789896200842804319e-09,2.604128360748291016e+00,-2.584822475910186768e-02,-2.018374763429164886e-02
4.880000000000000000e+03,5.500000000000000000e+00,2.400000095367431641e+00,6.730337176463763171e-09,7.047915140390159650e-09,2.603287458419799805e+00,-2.532072737812995911e-02,-2.012224495410919189e-02
4.881000000000000000e+03,5.599999904632568359e+00,2.400000095367431641e+00,6.854620426821611545e-09,7.310692495821058401e-09,2.602507114410400391e+00,-2.480090595781803131e-02,-2.006166055798530579e-02
4.882000000000000000e+03,5.699999809265136719e+00,2.400000095367431641e+00,6.978861932793734013e-09,7.578228711224710423e-09,2.601784944534301758e+00,-2.429191954433917999e-02,-2.000248618423938751e-02
4.883000000000000000e+03,5.800000190734863281e+00,2.400000095367431641e+00,7.103065247093809376e-09,7.850525562957955117e-09,2.601117849349975586e+00,-2.379635348916053772e-02,-1.994519867002964020e-02
4.884000000000000000e+03,5.900000095367431641e+00,2.400000095367431641e+00,7.227231701989467183e-09,8.127580386485533381e-09,2.600502967834472656e+00,-2.331627719104290009e-02,-1.988983154296875000e-02
4.885000000000000000e+03,6.000000000000000000e+00,2.400000095367431641e+00,7.351364406105176386e-09,8.409395846342704317e-09,2.599936962127685547e+00,-2.285330742597579956e-02,-1.983688585460186005e-02
4.886000000000000000e+03,6.099999904632568359e+00,2.400000095367431641e+00,7.475466468065405934e-09,8.695970166172628524e-09,2.599417448043823242e+00,-2.240866795182228088e-02,-1.978643611073493958e-02
4.887000000000000000e+03,6.199999809265136719e+00,2.400000095367431641e+00,7.599539664226995228e-09,8.987304234153725702e-09,2.598941564559936523e+00,-2.198323979973793030e-02,-1.973859220743179321e-02
4.888000000000000000e+03,6.300000190734863281e+00,2.400000095367431641e+00,7.723586215035993519e-09,9.283400714821254951e-09,2.598506212234497070e+00,-2.157760411500930786e-02,-1.969349943101406097e-02
4.889000000000000000e+03,6.400000095367431641e+00,2.400000095367431641e+00,7.847608785027659906e-09,9.584255167283117771e-09,2.598109006881713867e+00,-2.119209244847297668e-02,-1.965091191232204437e-02
4.890000000000000000e+03,6.500000000000000000e+00,2.400000095367431641e+00,7.971608262380414089e-09,9.889870256074573263e-09,2.597747325897216797e+00,-2.082680910825729370e-02,-1.961108669638633728e-02
4.891000000000000000e+03,6.599999904632568359e+00,2.400000095367431641e+00,8.095587311629515170e-09,1.020024509301720173e-08,2.597418785095214844e+00,-2.048167958855628967e-02,-1.957389898598194122e-02
4.892000000000000000e+03,6.699999809265136719e+00,2.400000095367431641e+00,8.219547709131802549e-09,1.051538056628942286e-08,2.597120761871337891e+00,-2.015646547079086304e-02,-1.953929103910923004e-02
4.893000000000000000e+03,6.800000190734863281e+00,2.400000095367431641e+00,8.343491231244115625e-09,1.083527667589123666e-08,2.596851110458374023e+00,-1.985080540180206299e-02,-1.950727030634880066e-02
4.894000000000000000e+03,6.900000095367431641e+00,2.400000095367431641e+00,8.467418766144874098e-09,1.115993253364422344e-08,2.596607923507690430e+00,-1.956422999501228333e-02,-1.947747915983200073e-02
4.895000000000000000e+03,7.000000000000000000e+00,2.400000095367431641e+00,8.591331202012497670e-09,1.148934813954838319e-08,2.596388816833496094e+00,-1.929617673158645630e-02,-1.945008523762226105e-02
4.896000000000000000e+03,7.099999904632568359e+00,2.400000095367431641e+00,8.715232091560665140e-09,1.182352438178213561e-08,2.596191883087158203e+00,-1.904602162539958954e-02,-1.942489482462406158e-02
4.897000000000000000e+03,7.199999809265136719e+00,2.400000095367431641e+00,8.839120546610956808e-09,1.216246037216706100e-08,2.596015691757202148e+00,-1.881308481097221375e-02,-1.940179616212844849e-02
4.898000000000000000e+03,7.300000190734863281e+00,2.400000095367431641e+00,8.962998343520212075e-09,1.250615788705999876e-08,2.595858097076416016e+00,-1.859664916992187500e-02,-1.938075758516788483e-02
4.899000000000000000e+03,7.400000095367431641e+00,2.400000095367431641e+00,9.086867258645270340e-09,1.285461426192568979e-08,2.595717906951904297e+00,-1.839596964418888092e-02,-1.936139911413192749e-02
4.900000000000000000e+03,7.500000000000000000e+00,2.400000095367431641e+00,9.210726403807711904e-09,1.320783038494255379e-08,2.595593452453613281e+00,-1.821028627455234528e-02,-1.934387162327766418e-02
4.901000000000000000e+03,7.599999904632568359e+00,2.400000095367431641e+00,9.334578443542795867e-09,1.356580625611059077e-08,2.595483064651489258e+00,-1.803882792592048645e-02,-1.932797580957412720e-02
4.902000000000000000e+03,7.699999809265136719e+00,2.400000095367431641e+00,9.458423377850522229e-09,1.392854276360822041e-08,2.595386028289794922e+00,-1.788082905113697052e-02,-1.931359805166721344e-02
4.903000000000000000e+03,7.800000190734863281e+00,2.400000095367431641e+00,9.582262983087730390e-09,1.429603990743544273e-08,2.595300436019897461e+00,-1.773552410304546356e-02,-1.930071786046028137e-02
4.904000000000000000e+03,7.900000095367431641e+00,2.400000095367431641e+00,9.706097259254420351e-09,1.466829591123541832e-08,2.595225811004638672e+00,-1.760216616094112396e-02,-1.928896456956863403e-02
4.905000000000000000e+03,8.000000000000000000e+00,2.400000095367431641e+00,9.829925318172172410e-09,1.504531077500814717e-08,2.595160722732543945e+00,-1.748001947999000549e-02,-1.927850209176540375e-02
4.906000000000000000e+03,8.100000381469726562e+00,2.400000095367431641e+00,9.953750712554665370e-09,1.542708716328888841e-08,2.595104455947875977e+00,-1.736836880445480347e-02,-1.926924660801887512e-02
4.907000000000000000e+03,8.199999809265136719e+00,2.400000095367431641e+00,1.007757077786664013e-08,1.581362063518554351e-08,2.595056056976318359e+00,-1.726652681827545166e-02,-1.926073431968688965e-02
4.908000000000000000e+03,8.300000190734863281e+00,2.400000095367431641e+00,1.020138817864335579e-08,1.620491651976863068e-08,2.595014572143554688e+00,-1.717382296919822693e-02,-1.925352215766906738e-02
4.909000000000000000e+03,8.399999618530273438e+00,2.400000095367431641e+00,1.032520202670639264e-08,1.660096771161079232e-08,2.594979524612426758e+00,-1.708962023258209229e-02,-1.924679800868034363e-02
4.910000000000000000e+03,8.500000000000000000e+00,2.400000095367431641e+00,1.044901498659100980e-08,1.700178309249622544e-08,2.594949960708618164e+00,-1.701330579817295074e-02,-1.924121566116809845e-02
4.911000000000000000e+03,8.600000381469726562e+00,2.400000095367431641e+00,1.057282528194036786e-08,1.740735910971125122e-08,2.594925403594970703e+00,-1.694429665803909302e-02,-1.923615857958793640e-02
4.912000000000000000e+03,8.699999809265136719e+00,2.400000095367431641e+00,1.069663291275446682e-08,1.781768865782851208e-08,2.594905376434326172e+00,-1.688203960657119751e-02,-1.923155970871448517e-02
4.913000000000000000e+03,8.800000190734863281e+00,2.400000095367431641e+00,1.082043965539014607e-08,1.823278239498904441e-08,2.594889163970947266e+00,-1.682600751519203186e-02,-1.922790706157684326e-02
4.914000000000000000e+03,8.899999618530273438e+00,2.400000095367431641e+00,1.094424462166898593e-08,1.865263143940865120e-08,2.594876289367675781e+00,-1.677571050822734833e-02,-1.922440901398658752e-02
4.915000000000000000e+03,9.000000000000000000e+00,2.400000095367431641e+00,1.106804869976940608e-08,1.907724467287152947e-08,2.594866514205932617e+00,-1.673067547380924225e-02,-1.922174729406833649e-02
4.916000000000000000e+03,9.100000381469726562e+00,2.400000095367431641e+00,1.119185277786982624e-08,1.950661676630716101e-08,2.594859361648559570e+00,-1.669046841561794281e-02,-1.921932399272918701e-02
4.917000000000000000e+03,9.199999809265136719e+00,2.400000095367431641e+00,1.131565419143498730e-08,1.994074416700186703e-08,2.594854593276977539e+00,-1.665467582643032074e-02,-1.921709626913070679e-02
4.918000000000000000e+03,9.300000190734863281e+00,2.400000095367431641e+00,1.143945649317856805e-08,2.037963398038300511e-08,2.594851493835449219e+00,-1.662291586399078369e-02,-1.921556703746318817e-02
4.919000000000000000e+03,9.399999618530273438e+00,2.400000095367431641e+00,1.156325701856530941e-08,2.082327910102321766e-08,2.594850301742553711e+00,-1.659482717514038086e-02,-1.921397261321544647e-02
4.920000000000000000e+03,9.500000000000000000e+00,2.400000095367431641e+00,1.168705843213047046e-08,2.127168841070670169e-08,2.594850540161132812e+00,-1.657007820904254913e-02,-1.921300590038299561e-02
4.921000000000000000e+03,9.600000381469726562e+00,2.400000095367431641e+00,1.181085984569563152e-08,2.172485835671977839e-08,2.594851970672607422e+00,-1.654835790395736694e-02,-1.921208947896957397e-02
4.922000000000000000e+03,9.699999809265136719e+00,2.400000095367431641e+00,1.193465948290395318e-08,2.218278005727825075e-08,2.594854354858398438e+00,-1.652937941253185272e-02,-1.921119540929794312e-02
4.923000000000000000e+03,9.800000190734863281e+00,2.400000095367431641e+00,1.205846089646911423e-08,2.264546772323683399e-08,2.594857692718505859e+00,-1.651287637650966644e-02,-1.921084523200988770e-02
4.924000000000000000e+03,9.899999618530273438e+00,2.400000095367431641e+00,1.218226053367743589e-08,2.311290892009765230e-08,2.594861507415771484e+00,-1.649860292673110962e-02,-1.921028457581996918e-02
4.925000000000000000e+03,1.000000000000000000e+01,2.400000095367431641e+00,1.230606194724259694e-08,2.358511430600174208e-08,2.594866037368774414e+00,-1.648633554577827454e-02,-1.921022310853004456e-02
4.926000000000000000e+03,1.010000038146972656e+01,2.400000095367431641e+00,1.242986247262933830e-08,2.406208032823542453e-08,2.594871044158935547e+00,-1.647586375474929810e-02,-1.921010017395019531e-02
4.927000000000000000e+03,1.019999980926513672e+01,2.400000095367431641e+00,1.255366299801607965e-08,2.454379810501450265e-08,2.594876050949096680e+00,-1.646699756383895874e-02,-1.920987851917743683e-02
4.928000000000000000e+03,1.030000019073486328e+01,2.400000095367431641e+00,1.267746441158124071e-08,2.503028184719369165e-08,2.594881534576416016e+00,-1.645956374704837799e-02,-1.921012625098228455e-02
4.929000000000000000e+03,1.039999961853027344e+01,2.400000095367431641e+00,1.280126493696798207e-08,2.552151912027511571e-08,2.594887018203735352e+00,-1.645340025424957275e-02,-1.921005733311176300e-02
4.930000000000000000e+03,1.050000000000000000e+01,2.400000095367431641e+00,1.292506635053314312e-08,2.601752058239981125e-08,2.594892740249633789e+00,-1.644836366176605225e-02,-1.921043358743190765e-02
4.931000000000000000e+03,1.060000038146972656e+01,2.400000095367431641e+00,1.304886865227672388e-08,2.651828090449726005e-08,2.594898462295532227e+00,-1.644432172179222107e-02,-1.921066269278526306e-02
4.932000000000000000e+03,1.069999980926513672e+01,2.400000095367431641e+00,1.317266917766346523e-08,2.702379475749694393e-08,2.594903945922851562e+00,-1.644115336239337921e-02,-1.921073906123638153e-02
4.933000000000000000e+03,1.080000019073486328e+01,2.400000095367431641e+00,1.329647147940704599e-08,2.753407457589673868e-08,2.594909429550170898e+00,-1.643874868750572205e-02,-1.921123079955577850e-02
4.934000000000000000e+03,1.089999961853027344e+01,2.400000095367431641e+00,1.342027378115062675e-08,2.804910614884192910e-08,2.594914913177490234e+00,-1.643701083958148956e-02,-1.921135932207107544e-02
4.935000000000000000e+03,1.100000000000000000e+01,2.400000095367431641e+00,1.354407608289420750e-08,2.856890368718723039e-08,2.594920158386230469e+00,-1.643585227429866791e-02,-1.921189017593860626e-02
4.936000000000000000e+03,1.110000038146972656e+01,2.400000095367431641e+00,1.366787927281620796e-08,2.909346008550528495e-08,2.594925403594970703e+00,-1.643519103527069092e-02,-1.921223849058151245e-02
4.937000000000000000e+03,1.119999980926513672e+01,2.400000095367431641e+00,1.379168157455978871e-08,2.962277001472557458e-08,2.594930410385131836e+00,-1.643495447933673859e-02,-1.921240054070949554e-02
4.938000000000000000e+03,1.130000019073486328e+01,2.400000095367431641e+00,1.391548476448178917e-08,3.015684413298913569e-08,2.594934940338134766e+00,-1.643508113920688629e-02,-1.921295002102851868e-02
4.939000000000000000e+03,1.139999961853027344e+01,2.400000095367431641e+00,1.403928795440378963e-08,3.069567355851177126e-08,2.594939708709716797e+00,-1.643551327288150787e-02,-1.921311393380165100e-02
4.940000000000000000e+03,1.150000000000000000e+01,2.400000095367431641e+00,1.416309203250420978e-08,3.123926362036399951e-08,2.594944000244140625e+00,-1.643619872629642487e-02,-1.921365782618522644e-02
4.941000000000000000e+03,1.160000038146972656e+01,2.400000095367431641e+00,1.428689611060462994e-08,3.178761787125949922e-08,2.594948053359985352e+00,-1.643709279596805573e-02,-1.921400241553783417e-02
4.942000000000000000e+03,1.169999980926513672e+01,2.400000095367431641e+00,1.441069930052663040e-08,3.234072210034355521e-08,2.594951868057250977e+00,-1.643815636634826660e-02,-1.921414770185947418e-02
4.943000000000000000e+03,1.180000019073486328e+01,2.400000095367431641e+00,1.453450426680547025e-08,3.289859051847088267e-08,2.594955682754516602e+00,-1.643935218453407288e-02,-1.921466737985610962e-02
4.944000000000000000e+03,1.189999961853027344e+01,2.400000095367431641e+00,1.465830745672747071e-08,3.346121602021412400e-08,2.594959020614624023e+00,-1.644065231084823608e-02,-1.921479031443595886e-02
4.945000000000000000e+03,1.200000000000000000e+01,2.400000095367431641e+00,1.478211242300631056e-08,3.402860215828695800e-08,2.594962358474731445e+00,-1.644202880561351776e-02,-1.921528577804565430e-02
4.946000000000000000e+03,1.210000038146972656e+01,2.400000095367431641e+00,1.490591827746357012e-08,3.460074893268938467e-08,2.594965457916259766e+00,-1.644345745444297791e-02,-1.921557635068893433e-02
4.947000000000000000e+03,1.219999980926513672e+01,2.400000095367431641e+00,1.502972146738557058e-08,3.517764923799404642e-08,2.594968318939208984e+00,-1.644491963088512421e-02,-1.921566016972064972e-02
4.948000000000000000e+03,1.230000019073486328e+01,2.400000095367431641e+00,1.515352821002124983e-08,3.575931728505565843e-08,2.594970941543579102e+00,-1.644639670848846436e-02,-1.921611465513706207e-02
4.949000000000000000e+03,1.239999961853027344e+01,2.400000095367431641e+00,1.527733139994325029e-08,3.634573531030582672e-08,2.594973564147949219e+00,-1.644787378609180450e-02,-1.921617053449153900e-02
4.950000000000000000e+03,1.250000000000000000e+01,2.400000095367431641e+00,1.540113814257892955e-08,3.693691752459926647e-08,2.594975709915161133e+00,-1.644933782517910004e-02,-1.921659708023071289e-02
4.951000000000000000e+03,1.260000038146972656e+01,2.400000095367431641e+00,1.552494310885776940e-08,3.753286037522229890e-08,2.594977855682373047e+00,-1.645078137516975403e-02,-1.921681687235832214e-02
4.952000000000000000e+03,1.269999980926513672e+01,2.400000095367431641e+00,1.564874807513660926e-08,3.813355675674756640e-08,2.594980001449584961e+00,-1.645219326019287109e-02,-1.921683177351951599e-02
4.953000000000000000e+03,1.280000019073486328e+01,2.400000095367431641e+00,1.577255481777228852e-08,3.873901732731610537e-08,2.594981670379638672e+00,-1.645356602966785431e-02,-1.921721547842025757e-02
4.954000000000000000e+03,1.289999961853027344e+01,2.400000095367431641e+00,1.589635978405112837e-08,3.934923142878687941e-08,2.594983339309692383e+00,-1.645489595830440521e-02,-1.921720430254936218e-02
4.955000000000000000e+03,1.300000000000000000e+01,2.400000095367431641e+00,1.602016475032996823e-08,3.996420971930092492e-08,2.594985008239746094e+00,-1.645617932081222534e-02,-1.921756193041801453e-02
4.956000000000000000e+03,1.310000038146972656e+01,2.400000095367431641e+00,1.614397149296564749e-08,4.058394864614456310e-08,2.594986438751220703e+00,-1.645740866661071777e-02,-1.921771652996540070e-02
4.957000000000000000e+03,1.319999980926513672e+01,2.400000095367431641e+00,1.626777645924448734e-08,4.120843755117675755e-08,2.594987630844116211e+00,-1.645858585834503174e-02,-1.921766810119152069e-02
4.958000000000000000e+03,1.330000019073486328e+01,2.400000095367431641e+00,1.639158320188016660e-08,4.183769419796590228e-08,2.594988822937011719e+00,-1.645970903337001801e-02,-1.921799220144748688e-02
4.959000000000000000e+03,1.339999961853027344e+01,2.400000095367431641e+00,1.651538994451584585e-08,4.247170437565728207e-08,2.594990015029907227e+00,-1.646077446639537811e-02,-1.921792328357696533e-02
4.960000000000000000e+03,1.350000000000000000e+01,2.400000095367431641e+00,1.663919491079468571e-08,4.311047874239193334e-08,2.594990968704223633e+00,-1.646178588271141052e-02,-1.921822689473628998e-02
4.961000000000000000e+03,1.360000038146972656e+01,2.400000095367431641e+00,1.676300165343036497e-08,4.375401374545617728e-08,2.594991922378540039e+00,-1.646274141967296600e-02,-1.921833120286464691e-02
4.962000000000000000e+03,1.369999980926513672e+01,2.400000095367431641e+00,1.688680839606604422e-08,4.440229872670897748e-08,2.594992637634277344e+00,-1.646364107728004456e-02,-1.921823620796203613e-02
4.963000000000000000e+03,1.380000019073486328e+01,2.400000095367431641e+00,1.701061513870172348e-08,4.505535144971872796e-08,2.594993352890014648e+00,-1.646448858082294464e-02,-1.921851933002471924e-02
4.964000000000000000e+03,1.389999961853027344e+01,2.400000095367431641e+00,1.713442010498056334e-08,4.571315415091703471e-08,2.594994068145751953e+00,-1.646528579294681549e-02,-1.921841315925121307e-02
4.965000000000000000e+03,1.400000000000000000e+01,2.400000095367431641e+00,1.725822684761624259e-08,4.637572459387229173e-08,2.594994544982910156e+00,-1.646603271365165710e-02,-1.921868696808815002e-02
4.966000000000000000e+03,1.410000038146972656e+01,2.400000095367431641e+00,1.738203359025192185e-08,4.704305212044346263e-08,2.594995260238647461e+00,-1.646673120558261871e-02,-1.921876706182956696e-02
4.967000000000000000e+03,1.419999980926513672e+01,2.400000095367431641e+00,1.750584033288760111e-08,4.771513673063054739e-08,2.594995737075805664e+00,-1.646738499402999878e-02,-1.921865530312061310e-02
4.968000000000000000e+03,1.430000019073486328e+01,2.400000095367431641e+00,1.762964707552328036e-08,4.839198197714722482e-08,2.594996213912963867e+00,-1.646799780428409576e-02,-1.921893097460269928e-02
4.969000000000000000e+03,1.439999961853027344e+01,2.400000095367431641e+00,1.775345204180212022e-08,4.907358075456613733e-08,2.594996452331542969e+00,-1.646857149899005890e-02,-1.921882666647434235e-02
4.970000000000000000e+03,1.450000000000000000e+01,2.400000095367431641e+00,1.787726056079463888e-08,4.975994727374200011e-08,2.594996929168701172e+00,-1.646910794079303741e-02,-1.921911537647247314e-02
4.971000000000000000e+03,1.460000038146972656e+01,2.400000095367431641e+00,1.800106730343031813e-08,5.045107087653377675e-08,2.594997167587280273e+00,-1.646961085498332977e-02,-1.921922340989112854e-02
4.972000000000000000e+03,1.469999980926513672e+01,2.400000095367431641e+00,1.812487226970915799e-08,5.114694801022778847e-08,2.594997406005859375e+00,-1.647008396685123444e-02,-1.921915635466575623e-02
4.973000000000000000e+03,1.480000019073486328e+01,2.400000095367431641e+00,1.824867901234483725e-08,5.184759288567875046e-08,2.594997644424438477e+00,-1.647053100168704987e-02,-1.921949163079261780e-02
4.974000000000000000e+03,1.489999961853027344e+01,2.400000095367431641e+00,1.837248575498051650e-08,5.255298773931826872e-08,2.594997882843017578e+00,-1.647095754742622375e-02,-1.921947114169597626e-02
4.975000000000000000e+03,1.500000000000000000e+01,2.400000095367431641e+00,1.849629249761619576e-08,5.326314678200105845e-08,2.594998121261596680e+00,-1.647136360406875610e-02,-1.921986788511276245e-02
4.976000000000000000e+03,1.510000038146972656e+01,2.400000095367431641e+00,1.862009924025187502e-08,5.397806646101344086e-08,2.594998121261596680e+00,-1.647175475955009460e-02,-1.922011561691761017e-02
4.977000000000000000e+03,1.519999980926513672e+01,2.400000095367431641e+00,1.874390598288755427e-08,5.469773967092805833e-08,2.594998359680175781e+00,-1.647213846445083618e-02,-1.922021806240081787e-02
4.978000000000000000e+03,1.530000019073486328e+01,2.400000095367431641e+00,1.886771272552323353e-08,5.542217706988594728e-08,2.594998598098754883e+00,-1.647251471877098083e-02,-1.922076754271984100e-02
4.979000000000000000e+03,1.539999961853027344e+01,2.400000095367431641e+00,1.899151946815891279e-08,5.615136799974607129e-08,2.594998598098754883e+00,-1.647289283573627472e-02,-1.922100782394409180e-02
4.980000000000000000e+03,1.550000000000000000e+01,2.400000095367431641e+00,1.911532621079459204e-08,5.688532311864946678e-08,2.594998836517333984e+00,-1.647327467799186707e-02,-1.922171749174594879e-02
4.981000000000000000e+03,1.560000038146972656e+01,2.400000095367431641e+00,1.923913295343027130e-08,5.762403887388245494e-08,2.594998836517333984e+00,-1.647366955876350403e-02,-1.922234147787094116e-02
4.982000000000000000e+03,1.569999980926513672e+01,2.400000095367431641e+00,1.936293969606595056e-08,5.836750460730399936e-08,2.594999074935913086e+00,-1.647408306598663330e-02,-1.922289468348026276e-02
4.983000000000000000e+03,1.580000019073486328e+01,2.400000095367431641e+00,1.948674643870162981e-08,5.911573808248249406e-08,2.594999074935913086e+00,-1.647452078759670258e-02,-1.922397874295711517e-02
4.984000000000000000e+03,1.589999961853027344e+01,2.400000095367431641e+00,1.961055318133730907e-08,5.986872508856322384e-08,2.594999313354492188e+00,-1.647499017417430878e-02,-1.922484859824180603e-02
4.985000000000000000e+03,1.600000000000000000e+01,2.400000095367431641e+00,1.973435992397298833e-08,6.062647628368722508e-08,2.594999313354492188e+00,-1.647550053894519806e-02,-1.922630146145820618e-02
4.986000000000000000e+03,1.610000038146972656e+01,2.400000095367431641e+00,1.985816666660866758e-08,6.138898100971346139e-08,2.594999551773071289e+00,-1.647606119513511658e-02,-1.922779344022274017e-02
4.987000000000000000e+03,1.620000076293945312e+01,2.400000095367431641e+00,1.998197518560118624e-08,6.215625347749664797e-08,2.594999790191650391e+00,-1.647667773067951202e-02,-1.922955363988876343e-02
4.988000000000000000e+03,1.629999923706054688e+01,2.400000095367431641e+00,2.010578015188002610e-08,6.292826526532735443e-08,2.595000028610229492e+00,-1.647736318409442902e-02,-1.923123933374881744e-02
4.989000000000000000e+03,1.639999961853027344e+01,2.400000095367431641e+00,2.022958689451570535e-08,6.370505190034236875e-08,2.595000267028808594e+00,-1.647812873125076294e-02,-1.923405006527900696e-02
4.990000000000000000e+03,1.650000000000000000e+01,2.400000095367431641e+00,2.035339363715138461e-08,6.448659917168697575e-08,2.595000505447387695e+00,-1.647898182272911072e-02,-1.923688128590583801e-02
4.991000000000000000e+03,1.660000038146972656e+01,2.400000095367431641e+00,2.047720215614390327e-08,6.527290707936117542e-08,2.595000982284545898e+00,-1.647993363440036774e-02,-1.924017630517482758e-02
4.992000000000000000e+03,1.670000076293945312e+01,2.400000095367431641e+00,2.060100889877958252e-08,6.606396851793761016e-08,2.595001459121704102e+00,-1.648099906742572784e-02,-1.924399845302104950e-02
4.993000000000000000e+03,1.679999923706054688e+01,2.400000095367431641e+00,2.072481386505842238e-08,6.685977638198892237e-08,2.595001935958862305e+00,-1.648218557238578796e-02,-1.924802921712398529e-02
4.994000000000000000e+03,1.689999961853027344e+01,2.400000095367431641e+00,2.084862060769410164e-08,6.766035909322454245e-08,2.595002412796020508e+00,-1.648350246250629425e-02,-1.925349608063697815e-02
4.995000000000000000e+03,1.700000000000000000e+01,2.400000095367431641e+00,2.097242912668662029e-08,6.846569533536239760e-08,2.595003128051757812e+00,-1.648496277630329132e-02,-1.925932057201862335e-02
4.996000000000000000e+03,1.710000038146972656e+01,2.400000095367431641e+00,2.109623586932229955e-08,6.927579221382984542e-08,2.595004081726074219e+00,-1.648656837642192841e-02,-1.926597394049167633e-02
4.997000000000000000e+03,1.720000076293945312e+01,2.400000095367431641e+00,2.122004438831481821e-08,7.009064972862688592e-08,2.595005035400390625e+00,-1.648832671344280243e-02,-1.927353441715240479e-02
4.998000000000000000e+03,1.729999923706054688e+01,2.400000095367431641e+00,2.134384935459365806e-08,7.091025366889880388e-08,2.595005989074707031e+00,-1.649023592472076416e-02,-1.928170584142208099e-02
4.999000000000000000e+03,1.739999961853027344e+01,2.400000095367431641e+00,2.146765787358617672e-08,7.173462535092767212e-08,2.595007181167602539e+00,-1.649229042232036591e-02,-1.929172128438949585e-02
5.000000000000000000e+03,1.750000000000000000e+01,2.400000095367431641e+00,2.159146461622185598e-08,7.256375766928613302e-08,2.595008611679077148e+00,-1.649448089301586151e-02,-1.930250786244869232e-02
5.001000000000000000e+03,1.760000038146972656e+01,2.400000095367431641e+00,2.171527313521437463e-08,7.339765062397418660e-08,2.595010280609130859e+00,-1.649678498506546021e-02,-1.931451819837093353e-02
5.002000000000000000e+03,1.770000076293945312e+01,2.400000095367431641e+00,2.183908165420689329e-08,7.423630421499183285e-08,2.595011949539184570e+00,-1.649917289614677429e-02,-1.932780072093009949e-02
5.003000000000000000e+03,1.779999923706054688e+01,2.400000095367431641e+00,2.196288839684257255e-08,7.507969002062964137e-08,2.595014095306396484e+00,-1.650159806013107300e-02,-1.934200525283813477e-02
5.004000000000000000e+03,1.789999961853027344e+01,2.400000095367431641e+00,2.208669691583509120e-08,7.592785777887911536e-08,2.595016241073608398e+00,-1.650400273501873016e-02,-1.935828663408756256e-02
5.005000000000000000e+03,1.800000000000000000e+01,2.400000095367431641e+00,2.221050543482760986e-08,7.678078617345818202e-08,2.595018625259399414e+00,-1.650631055235862732e-02,-1.937545649707317352e-02
5.006000000000000000e+03,1.810000038146972656e+01,2.400000095367431641e+00,2.233431395382012852e-08,7.763846809893948375e-08,2.595021247863769531e+00,-1.650842837989330292e-02,-1.939380913972854614e-02
5.007000000000000000e+03,1.820000076293945312e+01,2.400000095367431641e+00,2.245812247281264717e-08,7.850091066075037816e-08,2.595024108886718750e+00,-1.651023514568805695e-02,-1.941320113837718964e-02
5.008000000000000000e+03,1.829999923706054688e+01,2.400000095367431641e+00,2.258192921544832643e-08,7.936809254260879243e-08,2.595027208328247070e+00,-1.651159860193729401e-02,-1.943302713334560394e-02
5.009000000000000000e+03,1.839999961853027344e+01,2.400000095367431641e+00,2.270573773444084509e-08,8.024004927165151457e-08,2.595030307769775391e+00,-1.651235669851303101e-02,-1.945413276553153992e-02
5.010000000000000000e+03,1.850000000000000000e+01,2.400000095367431641e+00,2.282954802979020315e-08,8.111677374245118699e-08,2.595033645629882812e+00,-1.651233807206153870e-02,-1.947496645152568817e-02
5.011000000000000000e+03,1.860000038146972656e+01,2.400000095367431641e+00,2.295335654878272180e-08,8.199824463872573688e-08,2.595037221908569336e+00,-1.651135087013244629e-02,-1.949539594352245331e-02
5.012000000000000000e+03,1.870000076293945312e+01,2.400000095367431641e+00,2.307716684413207986e-08,8.288448327675723704e-08,2.595040559768676758e+00,-1.650920324027538300e-02,-1.951479911804199219e-02
5.013000000000000000e+03,1.879999923706054688e+01,2.400000095367431641e+00,2.320097358676775912e-08,8.377546123483625706e-08,2.595044136047363281e+00,-1.650570519268512726e-02,-1.953204907476902008e-02
5.014000000000000000e+03,1.889999961853027344e+01,2.400000095367431641e+00,2.332478388211711717e-08,8.467121404009958496e-08,2.595047473907470703e+00,-1.650068350136280060e-02,-1.954744383692741394e-02
5.015000000000000000e+03,1.900000000000000000e+01,2.400000095367431641e+00,2.344859417746647523e-08,8.557173458711986314e-08,2.595050811767578125e+00,-1.649400405585765839e-02,-1.955887116491794586e-02
5.016000000000000000e+03,1.910000038146972656e+01,2.400000095367431641e+00,2.357240447281583329e-08,8.647700866504237638e-08,2.595053911209106445e+00,-1.648557744920253754e-02,-1.956568472087383270e-02
5.017000000000000000e+03,1.920000076293945312e+01,2.400000095367431641e+00,2.369621476816519134e-08,8.738704337929448229e-08,2.595056772232055664e+00,-1.647538132965564728e-02,-1.956680044531822205e-02
5.018000000000000000e+03,1.929999923706054688e+01,2.400000095367431641e+00,2.382002151080087060e-08,8.830183162444882328e-08,2.595059156417846680e+00,-1.646348088979721069e-02,-1.956074684858322144e-02
5.019000000000000000e+03,1.939999961853027344e+01,2.400000095367431641e+00,2.394383180615022866e-08,8.922139471678747213e-08,2.595061540603637695e+00,-1.645002327859401703e-02,-1.954763382673263550e-02
5.020000000000000000e+03,1.950000000000000000e+01,2.400000095367431641e+00,2.406764032514274732e-08,9.014572555088307126e-08,2.595063447952270508e+00,-1.643526367843151093e-02,-1.952536776661872864e-02
5.021000000000000000e+03,1.960000038146972656e+01,2.400000095367431641e+00,2.419145062049210537e-08,9.107481702130826307e-08,2.595065116882324219e+00,-1.641954295337200165e-02,-1.949355378746986389e-02
5.022000000000000000e+03,1.970000076293945312e+01,2.400000095367431641e+00,2.431526091584146343e-08,9.200867623349040514e-08,2.595066547393798828e+00,-1.640327833592891693e-02,-1.945162191987037659e-02
5.023000000000000000e+03,1.979999923706054688e+01,2.400000095367431641e+00,2.443906765847714269e-08,9.294728897657478228e-08,2.595067739486694336e+00,-1.638694666326045990e-02,-1.939888112246990204e-02
5.024000000000000000e+03,1.989999961853027344e+01,2.400000095367431641e+00,2.456287617746966134e-08,9.389068367227082490e-08,2.595068931579589844e+00,-1.637103036046028137e-02,-1.933646015822887421e-02
5.025000000000000000e+03,2.000000000000000000e+01,2.400000095367431641e+00,2.468668469646218000e-08,9.483885321515117539e-08,2.595070123672485352e+00,-1.635599136352539062e-02,-1.926346495747566223e-02
5.026000000000000000e+03,0.000000000000000000e+00,2.500000000000000000e+00,1.071820797341557388e-37,2.521862195605264615e-38,2.350240707397460938e+00,7.050722241401672363e-01,-1.490280777215957642e-01
5.027000000000000000e+03,1.000000014901161194e-01,2.500000000000000000e+00,1.018437695288199052e-10,-1.845109655340682053e-11,2.335238218307495117e+00,6.550634503364562988e-01,-1.820415258407592773e-01
5.028000000000000000e+03,2.000000029802322388e-01,2.500000000000000000e+00,2.050493247418572196e-10,-2.962585385346550026e-11,2.351624250411987305e+00,6.143586039543151855e-01,-1.570059806108474731e-01
5.029000000000000000e+03,3.000000119209289551e-01,2.500000000000000000e+00,3.096114753464718206e-10,-3.374465637473456070e-11,2.367939233779907227e+00,5.737816095352172852e-01,-1.344568282365798950e-01
5.030000000000000000e+03,4.000000059604644775e-01,2.500000000000000000e+00,4.155157606877679655e-10,-3.102353790529477351e-11,2.384060859680175781e+00,5.335692167282104492e-01,-1.143333613872528076e-01
5.031000000000000000e+03,5.000000000000000000e-01,2.500000000000000000e+00,5.227382970929284056e-10,-2.167204957159718504e-11,2.399862051010131836e+00,4.939601421356201172e-01,-9.654774516820907593e-02
5.032000000000000000e+03,6.000000238418579102e-01,2.500000000000000000e+00,6.312459444046680801e-10,-5.891302203020476469e-12,2.415216207504272461e+00,4.551875591278076172e-01,-8.098787069320678711e-02
5.033000000000000000e+03,6.999999880790710449e-01,2.500000000000000000e+00,7.409964308813243861e-10,1.612771374781551970e-11,2.430002212524414062e+00,4.174718558788299561e-01,-6.752090156078338623e-02
5.034000000000000000e+03,8.000000119209289551e-01,2.500000000000000000e+00,8.519394634198818039e-10,4.420558710749311615e-11,2.444107294082641602e+00,3.810140788555145264e-01,-5.599770322442054749e-02
5.035000000000000000e+03,8.999999761581420898e-01,2.500000000000000000e+00,9.640171994007573630e-10,7.817544528387898595e-11,2.457431316375732422e+00,3.459911346435546875e-01,-4.625736922025680542e-02
5.036000000000000000e+03,1.000000000000000000e+00,2.500000000000000000e+00,1.077166023044640042e-09,1.178837999438187012e-10,2.469890594482421875e+00,3.125515878200531006e-01,-3.813220560550689697e-02
5.037000000000000000e+03,1.100000023841857910e+00,2.500000000000000000e+00,1.191317267057456775e-09,1.631907942112320598e-10,2.481418371200561523e+00,2.808138728141784668e-01,-3.145215287804603577e-02
5.038000000000000000e+03,1.200000047683715820e+00,2.500000000000000000e+00,1.306398655920304464e-09,2.139702859338399321e-10,2.491967678070068359e+00,2.508653402328491211e-01,-2.604909986257553101e-02
5.039000000000000000e+03,1.299999952316284180e+00,2.500000000000000000e+00,1.422335693668230761e-09,2.701095735968550571e-10,2.501510381698608398e+00,2.227629423141479492e-01,-2.176043204963207245e-02
5.040000000000000000e+03,1.399999976158142090e+00,2.500000000000000000e+00,1.539053662291678393e-09,3.315091257061197894e-10,2.510036468505859375e+00,1.965347677469253540e-01,-1.843207515776157379e-02
5.041000000000000000e+03,1.500000000000000000e+00,2.500000000000000000e+00,1.656477399691880237e-09,3.980815399540205135e-10,2.517553091049194336e+00,1.721828281879425049e-01,-1.592046953737735748e-02
5.042000000000000000e+03,1.600000023841857910e+00,2.500000000000000000e+00,1.774533520126908570e-09,4.697510158635509470e-10,2.524082899093627930e+00,1.496858149766921997e-01,-1.409431546926498413e-02
5.043000000000000000e+03,1.700000047683715820e+00,2.500000000000000000e+00,1.893150747278582458e-09,5.464522168097118993e-10,2.529661178588867188e+00,1.290026605129241943e-01,-1.283529307693243027e-02
5.044000000000000000e+03,1.799999952316284180e+00,2.500000000000000000e+00,2.012260580386282527e-09,6.281294373522428032e-10,2.534333944320678711e+00,1.100758910179138184e-01,-1.203833334147930145e-02
5.045000000000000000e+03,1.899999976158142090e+00,2.500000000000000000e+00,2.131798959581487907e-09,7.147358815906557084e-10,2.538155317306518555e+00,9.283493459224700928e-02,-1.161157898604869843e-02
5.046000000000000000e+03,2.000000000000000000e+00,2.500000000000000000e+00,2.251705044642449138e-09,8.062320255852739592e-10,2.541185617446899414e+00,7.719942927360534668e-02,-1.147556956857442856e-02
5.047000000000000000e+03,2.099999904632568359e+00,2.500000000000000000e+00,2.371922214194910339e-09,9.025851177568711137e-10,2.543488502502441406e+00,6.308200955390930176e-02,-1.156268175691366196e-02
5.048000000000000000e+03,2.200000047683715820e+00,2.500000000000000000e+00,2.492399175935133826e-09,1.003768734797461093e-09,2.545130014419555664e+00,5.039074271917343140e-02,-1.181615330278873444e-02
5.049000000000000000e+03,2.299999952316284180e+00,2.500000000000000000e+00,2.613087968228455793e-09,1.109760616735400163e-09,2.546176433563232422e+00,3.903154283761978149e-02,-1.218865718692541122e-02
5.050000000000000000e+03,2.400000095367431641e+00,2.500000000000000000e+00,2.733946180555335559e-09,1.220543888180714021e-09,2.546693086624145508e+00,2.890969440340995789e-02,-1.264183502644300461e-02
5.051000000000000000e+03,2.500000000000000000e+00,2.500000000000000000e+00,2.854934733065306318e-09,1.336104005211780077e-09,2.546742916107177734e+00,1.993162557482719421e-02,-1.314444281160831451e-02
5.052000000000000000e+03,2.599999904632568359e+00,2.500000000000000000e+00,2.976019652933814541e-09,1.456430642754469318e-09,2.546386241912841797e+00,1.200586650520563126e-02,-1.367205101996660233e-02
5.053000000000000000e+03,2.700000047683715820e+00,2.500000000000000000e+00,3.097170742094590423e-09,1.581515807203004442e-09,2.545680284500122070e+00,5.044076591730117798e-03,-1.420558243989944458e-02
5.054000000000000000e+03,2.799999952316284180e+00,2.500000000000000000e+00,3.218360467016623261e-09,1.711352615174632774e-09,2.544677734375000000e+00,-1.038248650729656219e-03,-1.473043393343687057e-02
5.055000000000000000e+03,2.900000095367431641e+00,2.500000000000000000e+00,3.339566623239420551e-09,1.845937513955675513e-09,2.543427705764770508e+00,-6.321419961750507355e-03,-1.523617561906576157e-02
5.056000000000000000e+03,3.000000000000000000e+00,2.500000000000000000e+00,3.460768338570119340e-09,1.985266617765546471e-09,2.541974782943725586e+00,-1.088111847639083862e-02,-1.571512408554553986e-02
5.057000000000000000e+03,3.099999904632568359e+00,2.500000000000000000e+00,3.581948959663350252e-09,2.129338261269708710e-09,2.540359735488891602e+00,-1.478832494467496872e-02,-1.616247184574604034e-02
5.058000000000000000e+03,3.200000047683715820e+00,2.500000000000000000e+00,3.703094497709003008e-09,2.278151889356649917e-09,2.538618564605712891e+00,-1.810921169817447662e-02,-1.657527685165405273e-02
5.059000000000000000e+03,3.299999952316284180e+00,2.500000000000000000e+00,3.824192074119991958e-09,2.431705947714135618e-09,2.536784172058105469e+00,-2.090515755116939545e-02,-1.695203594863414764e-02
5.060000000000000000e+03,3.400000095367431641e+00,2.500000000000000000e+00,3.945233029156725024e-09,2.590001768609795363e-09,2.534884929656982422e+00,-2.323289029300212860e-02,-1.729279384016990662e-02
5.061000000000000000e+03,3.500000000000000000e+00,2.500000000000000000e+00,4.066208703079610132e-09,2.753038685909814376e-09,2.532946109771728516e+00,-2.514458261430263519e-02,-1.759811304509639740e-02
5.062000000000000000e+03,3.599999904632568359e+00,2.500000000000000000e+00,4.187113322728919229e-09,2.920817809837217283e-09,2.530989408493041992e+00,-2.668808028101921082e-02,-1.786955259740352631e-02
5.063000000000000000e+03,3.700000047683715820e+00,2.500000000000000000e+00,4.307942003123343966e-09,3.093340472659633633e-09,2.529033899307250977e+00,-2.790708467364311218e-02,-1.810898631811141968e-02
5.064000000000000000e+03,3.799999952316284180e+00,2.500000000000000000e+00,4.428692079727625242e-09,3.270606896421668353e-09,2.527095556259155273e+00,-2.884137630462646484e-02,-1.831843331456184387e-02
5.065000000000000000e+03,3.900000095367431641e+00,2.500000000000000000e+00,4.549360888006503956e-09,3.452619079524765766e-09,2.525187730789184570e+00,-2.952707000076770782e-02,-1.850042119622230530e-02
5.066000000000000000e+03,4.000000000000000000e+00,2.500000000000000000e+00,4.669947539781560408e-09,3.639377021968925874e-09,2.523321628570556641e+00,-2.999683283269405365e-02,-1.865715719759464264e-02
5.067000000000000000e+03,4.099999904632568359e+00,2.500000000000000000e+00,4.790451590963584749e-09,3.830882722155593001e-09,2.521506786346435547e+00,-3.028013743460178375e-02,-1.879118755459785461e-02
5.068000000000000000e+03,4.199999809265136719e+00,2.500000000000000000e+00,4.910873929730996679e-09,4.027136846218581923e-09,2.519750356674194336e+00,-3.040348179638385773e-02,-1.890479773283004761e-02
5.069000000000000000e+03,4.300000190734863281e+00,2.500000000000000000e+00,5.031216332440635597e-09,4.228141392559336964e-09,2.518058061599731445e+00,-3.039062395691871643e-02,-1.900031045079231262e-02
5.070000000000000000e+03,4.400000095367431641e+00,2.500000000000000000e+00,5.151478799092501504e-09,4.433895917088648275e-09,2.516434431076049805e+00,-3.026279993355274200e-02,-1.907956786453723907e-02
5.071000000000000000e+03,4.500000000000000000e+00,2.500000000000000000e+00,5.271663994221853500e-09,4.644401307984935556e-09,2.514882087707519531e+00,-3.003891929984092712e-02,-1.914479583501815796e-02
5.072000000000000000e+03,4.599999904632568359e+00,2.500000000000000000e+00,5.391774582363950685e-09,4.859659341605038207e-09,2.513403654098510742e+00,-2.973577752709388733e-02,-1.919772103428840637e-02
5.073000000000000000e+03,4.699999809265136719e+00,2.500000000000000000e+00,5.511813228054052161e-09,5.079670462038166079e-09,2.511999845504760742e+00,-2.936822734773159027e-02,-1.923999376595020294e-02
5.074000000000000000e+03,4.800000190734863281e+00,2.500000000000000000e+00,5.631783039916626876e-09,5.304436445641158571e-09,2.510670900344848633e+00,-2.894935756921768188e-02,-1.927319355309009552e-02
5.075000000000000000e+03,4.900000095367431641e+00,2.500000000000000000e+00,5.751685794308514232e-09,5.533955960146386133e-09,2.509416580200195312e+00,-2.849067002534866333e-02,-1.929839327931404114e-02
5.076000000000000000e+03,5.000000000000000000e+00,2.500000000000000000e+00,5.871525488032602880e-09,5.768230337821478315e-09,2.508235931396484375e+00,-2.800220064818859100e-02,-1.931706443428993225e-02
5.077000000000000000e+03,5.099999904632568359e+00,2.500000000000000000e+00,5.991305229713361769e-09,6.007260022755644968e-09,2.507127285003662109e+00,-2.749268151819705963e-02,-1.933017745614051819e-02
5.078000000000000000e+03,5.199999809265136719e+00,2.500000000000000000e+00,6.111027683886049999e-09,6.251045903127305792e-09,2.506088972091674805e+00,-2.696966379880905151e-02,-1.933866925537586212e-02
5.079000000000000000e+03,5.300000190734863281e+00,2.500000000000000000e+00,6.230697291442766073e-09,6.499589311204090336e-09,2.505118846893310547e+00,-2.643964067101478577e-02,-1.934344321489334106e-02
5.080000000000000000e+03,5.400000095367431641e+00,2.500000000000000000e+00,6.350315828740349389e-09,6.752888026539949351e-09,2.504214525222778320e+00,-2.590815909206867218e-02,-1.934494450688362122e-02
5.081000000000000000e+03,5.500000000000000000e+00,2.500000000000000000e+00,6.469886404403268898e-09,7.010944269580932087e-09,2.503373384475708008e+00,-2.537990920245647430e-02,-1.934405416250228882e-02
5.082000000000000000e+03,5.599999904632568359e+00,2.500000000000000000e+00,6.589412571145203401e-09,7.273757596237828693e-09,2.502592802047729492e+00,-2.485882677137851715e-02,-1.934121549129486084e-02
5.083000000000000000e+03,5.699999809265136719e+00,2.500000000000000000e+00,6.708896993501411998e-09,7.541328450599849020e-09,2.501869678497314453e+00,-2.434817887842655182e-02,-1.933687739074230194e-02
5.084000000000000000e+03,5.800000190734863281e+00,2.500000000000000000e+00,6.828342780096363640e-09,7.813658164934622619e-09,2.501201629638671875e+00,-2.385063283145427704e-02,-1.933150924742221832e-02
5.085000000000000000e+03,5.900000095367431641e+00,2.500000000000000000e+00,6.947752151376107577e-09,8.090744962885310088e-09,2.500585317611694336e+00,-2.336833812296390533e-02,-1.932516135275363922e-02
5.086000000000000000e+03,6.000000000000000000e+00,2.500000000000000000e+00,7.067127771875902909e-09,8.372590620808750828e-09,2.500018358230590820e+00,-2.290297485888004303e-02,-1.931836828589439392e-02
5.087000000000000000e+03,6.099999904632568359e+00,2.500000000000000000e+00,7.186471862041798886e-09,8.659193362348105438e-09,2.499497413635253906e+00,-2.245582453906536102e-02,-1.931126601994037628e-02
5.088000000000000000e+03,6.199999809265136719e+00,2.500000000000000000e+00,7.305787530498264459e-09,8.950554963860213320e-09,2.499020099639892578e+00,-2.202781476080417633e-02,-1.930403150618076324e-02
5.089000000000000000e+03,6.300000190734863281e+00,2.500000000000000000e+00,7.425076997691348879e-09,9.246677201701913873e-09,2.498583316802978516e+00,-2.161956764757633209e-02,-1.929689757525920868e-02
5.090000000000000000e+03,6.400000095367431641e+00,2.500000000000000000e+00,7.544341151799471845e-09,9.547555634981108597e-09,2.498184680938720703e+00,-2.123144827783107758e-02,-1.928970776498317719e-02
5.091000000000000000e+03,6.500000000000000000e+00,2.500000000000000000e+00,7.663583545536312158e-09,9.853192928233056591e-09,2.497821569442749023e+00,-2.086359076201915741e-02,-1.928282156586647034e-02
5.092000000000000000e+03,6.599999904632568359e+00,2.500000000000000000e+00,7.782804622991079668e-09,1.016358996963617756e-08,2.497491598129272461e+00,-2.051593735814094543e-02,-1.927622035145759583e-02
5.093000000000000000e+03,6.699999809265136719e+00,2.500000000000000000e+00,7.902006160520613776e-09,1.047874498283363209e-08,2.497192382812500000e+00,-2.018827386200428009e-02,-1.926995068788528442e-02
5.094000000000000000e+03,6.800000190734863281e+00,2.500000000000000000e+00,8.021191710838593281e-09,1.079865974418225960e-08,2.496921539306640625e+00,-1.988024637103080750e-02,-1.926413364708423615e-02
5.095000000000000000e+03,6.900000095367431641e+00,2.500000000000000000e+00,8.140361273945018183e-09,1.112333336550364038e-08,2.496677160263061523e+00,-1.959139853715896606e-02,-1.925852335989475250e-02
5.096000000000000000e+03,7.000000000000000000e+00,2.500000000000000000e+00,8.259515738018308184e-09,1.145276495861935473e-08,2.496456861495971680e+00,-1.932117901742458344e-02,-1.925339549779891968e-02
5.097000000000000000e+03,7.099999904632568359e+00,2.500000000000000000e+00,8.378657767593722383e-09,1.178695541170782235e-08,2.496259212493896484e+00,-1.906896382570266724e-02,-1.924866996705532074e-02
5.098000000000000000e+03,7.199999809265136719e+00,2.500000000000000000e+00,8.497788250849680480e-09,1.212590561294746294e-08,2.496082067489624023e+00,-1.883408054709434509e-02,-1.924433931708335876e-02
5.099000000000000000e+03,7.300000190734863281e+00,2.500000000000000000e+00,8.616908075964602176e-09,1.246961556233827650e-08,2.495923757553100586e+00,-1.861580833792686462e-02,-1.924048177897930145e-02
5.100000000000000000e+03,7.400000095367431641e+00,2.500000000000000000e+00,8.736017242938487470e-09,1.281808348352342364e-08,2.495782613754272461e+00,-1.841340586543083191e-02,-1.923681423068046570e-02
5.101000000000000000e+03,7.500000000000000000e+00,2.500000000000000000e+00,8.855118416306595464e-09,1.317131026468132404e-08,2.495657444000244141e+00,-1.822611130774021149e-02,-1.923359185457229614e-02
5.102000000000000000e+03,7.599999904632568359e+00,2.500000000000000000e+00,8.974211596068926156e-09,1.352929590581197772e-08,2.495546340942382812e+00,-1.805314980447292328e-02,-1.923070661723613739e-02
5.103000000000000000e+03,7.699999809265136719e+00,2.500000000000000000e+00,9.093298558582318947e-09,1.389204129509380437e-08,2.495448589324951172e+00,-1.789375394582748413e-02,-1.922813802957534790e-02
5.104000000000000000e+03,7.800000190734863281e+00,2.500000000000000000e+00,9.212379303846773837e-09,1.425954643252680398e-08,2.495362758636474609e+00,-1.774715445935726166e-02,-1.922595500946044922e-02
5.105000000000000000e+03,7.900000095367431641e+00,2.500000000000000000e+00,9.331453831862290826e-09,1.463180954175413717e-08,2.495287656784057617e+00,-1.761260069906711578e-02,-1.922386325895786285e-02
5.106000000000000000e+03,8.000000000000000000e+00,2.500000000000000000e+00,9.450523918985709315e-09,1.500883151095422363e-08,2.495222091674804688e+00,-1.748935133218765259e-02,-1.922211423516273499e-02
5.107000000000000000e+03,8.100000381469726562e+00,2.500000000000000000e+00,9.569589565217029303e-09,1.539061500466232246e-08,2.495165586471557617e+00,-1.737668737769126892e-02,-1.922069303691387177e-02
5.108000000000000000e+03,8.199999809265136719e+00,2.500000000000000000e+00,9.688650770556250791e-09,1.577715380562949576e-08,2.495116710662841797e+00,-1.727391593158245087e-02,-1.921920850872993469e-02
5.109000000000000000e+03,8.300000190734863281e+00,2.500000000000000000e+00,9.807710199538632878e-09,1.616845501928310114e-08,2.495074987411499023e+00,-1.718036271631717682e-02,-1.921828091144561768e-02
5.110000000000000000e+03,8.399999618530273438e+00,2.500000000000000000e+00,9.926765187628916465e-09,1.656451154019578098e-08,2.495039701461791992e+00,-1.709538698196411133e-02,-1.921716332435607910e-02
5.111000000000000000e+03,8.500000000000000000e+00,2.500000000000000000e+00,1.004581839936236065e-08,1.696533047379489290e-08,2.495009899139404297e+00,-1.701836660504341125e-02,-1.921656727790832520e-02
5.112000000000000000e+03,8.600000381469726562e+00,2.500000000000000000e+00,1.016486983473896544e-08,1.737090826736675808e-08,2.494985103607177734e+00,-1.694871671497821808e-02,-1.921593025326728821e-02
5.113000000000000000e+03,8.699999809265136719e+00,2.500000000000000000e+00,1.028391860558031112e-08,1.778124314455453714e-08,2.494964838027954102e+00,-1.688588224351406097e-02,-1.921523548662662506e-02
5.114000000000000000e+03,8.800000190734863281e+00,2.500000000000000000e+00,1.040296648824323711e-08,1.819633865807190887e-08,2.494948387145996094e+00,-1.682932861149311066e-02,-1.921501755714416504e-02
5.115000000000000000e+03,8.899999618530273438e+00,2.500000000000000000e+00,1.052201170637090399e-08,1.861619125520519447e-08,2.494935512542724609e+00,-1.677856035530567169e-02,-1.921453326940536499e-02
5.116000000000000000e+03,9.000000000000000000e+00,2.500000000000000000e+00,1.064105692449857088e-08,1.904080626502491214e-08,2.494925737380981445e+00,-1.673310436308383942e-02,-1.921449787914752960e-02
5.117000000000000000e+03,9.100000381469726562e+00,2.500000000000000000e+00,1.076010125444781806e-08,1.947018013481738308e-08,2.494918584823608398e+00,-1.669251918792724609e-02,-1.921435631811618805e-02
5.118000000000000000e+03,9.199999809265136719e+00,2.500000000000000000e+00,1.087914469621864555e-08,1.990430931186892849e-08,2.494913578033447266e+00,-1.665639132261276245e-02,-1.921409554779529572e-02
5.119000000000000000e+03,9.300000190734863281e+00,2.500000000000000000e+00,1.099818724981105333e-08,2.034320090160690597e-08,2.494910478591918945e+00,-1.662433147430419922e-02,-1.921425573527812958e-02
5.120000000000000000e+03,9.399999618530273438e+00,2.500000000000000000e+00,1.111722891522504142e-08,2.078684779860395793e-08,2.494909286499023438e+00,-1.659597828984260559e-02,-1.921409927308559418e-02
5.121000000000000000e+03,9.500000000000000000e+00,2.500000000000000000e+00,1.123627146881744920e-08,2.123525888464428135e-08,2.494909524917602539e+00,-1.657099463045597076e-02,-1.921434700489044189e-02
5.122000000000000000e+03,9.600000381469726562e+00,2.500000000000000000e+00,1.135531402240985699e-08,2.168842705430051865e-08,2.494910955429077148e+00,-1.654906757175922394e-02,-1.921444572508335114e-02
5.123000000000000000e+03,9.699999809265136719e+00,2.500000000000000000e+00,1.147435479964542537e-08,2.214635230757266982e-08,2.494913339614868164e+00,-1.652990840375423431e-02,-1.921438798308372498e-02
5.124000000000000000e+03,9.800000190734863281e+00,2.500000000000000000e+00,1.159339646505941346e-08,2.260903997353125305e-08,2.494916439056396484e+00,-1.651324890553951263e-02,-1.921471767127513885e-02
5.125000000000000000e+03,9.899999618530273438e+00,2.500000000000000000e+00,1.171243724229498184e-08,2.307648294674891076e-08,2.494920492172241211e+00,-1.649883948266506195e-02,-1.921470090746879578e-02
5.126000000000000000e+03,1.000000000000000000e+01,2.500000000000000000e+00,1.183147890770896993e-08,2.354868833265300054e-08,2.494925022125244141e+00,-1.648645475506782532e-02,-1.921506226062774658e-02
5.127000000000000000e+03,1.010000038146972656e+01,2.500000000000000000e+00,1.195052146130137771e-08,2.402565257852984359e-08,2.494929790496826172e+00,-1.647588238120079041e-02,-1.921525225043296814e-02
5.128000000000000000e+03,1.019999980926513672e+01,2.500000000000000000e+00,1.206956223853694610e-08,2.450737213166576112e-08,2.494935035705566406e+00,-1.646693050861358643e-02,-1.921525597572326660e-02
5.129000000000000000e+03,1.030000019073486328e+01,2.500000000000000000e+00,1.218860479212935388e-08,2.499385587384495011e-08,2.494940519332885742e+00,-1.645942404866218567e-02,-1.921564526855945587e-02
5.130000000000000000e+03,1.039999961853027344e+01,2.500000000000000000e+00,1.230764556936492227e-08,2.548509314692637417e-08,2.494946002960205078e+00,-1.645320095121860504e-02,-1.921565271914005280e-02
5.131000000000000000e+03,1.050000000000000000e+01,2.500000000000000000e+00,1.242668812295733005e-08,2.598109460905106971e-08,2.494951725006103516e+00,-1.644811592996120453e-02,-1.921604573726654053e-02
5.132000000000000000e+03,1.060000038146972656e+01,2.500000000000000000e+00,1.254573156472815754e-08,2.648185493114851852e-08,2.494957447052001953e+00,-1.644403301179409027e-02,-1.921624131500720978e-02
5.133000000000000000e+03,1.069999980926513672e+01,2.500000000000000000e+00,1.266477323014214562e-08,2.698737056050504179e-08,2.494962930679321289e+00,-1.644083298742771149e-02,-1.921624317765235901e-02
5.134000000000000000e+03,1.080000019073486328e+01,2.500000000000000000e+00,1.278381667191297311e-08,2.749764860254799714e-08,2.494968652725219727e+00,-1.643840596079826355e-02,-1.921662501990795135e-02
5.135000000000000000e+03,1.089999961853027344e+01,2.500000000000000000e+00,1.290285922550538089e-08,2.801268195185002696e-08,2.494973897933959961e+00,-1.643664948642253876e-02,-1.921661570668220520e-02
5.136000000000000000e+03,1.100000000000000000e+01,2.500000000000000000e+00,1.302190266727620838e-08,2.853247771383848885e-08,2.494979381561279297e+00,-1.643547788262367249e-02,-1.921698451042175293e-02
5.137000000000000000e+03,1.110000038146972656e+01,2.500000000000000000e+00,1.314094699722545556e-08,2.905703411215654342e-08,2.494984388351440430e+00,-1.643480919301509857e-02,-1.921715587377548218e-02
5.138000000000000000e+03,1.119999980926513672e+01,2.500000000000000000e+00,1.325998955081786335e-08,2.958634404137683305e-08,2.494989395141601562e+00,-1.643457077443599701e-02,-1.921712607145309448e-02
5.139000000000000000e+03,1.130000019073486328e+01,2.500000000000000000e+00,1.337903388076711053e-08,3.012041815964039415e-08,2.494994163513183594e+00,-1.643469743430614471e-02,-1.921747438609600067e-02
5.140000000000000000e+03,1.139999961853027344e+01,2.500000000000000000e+00,1.349807821071635772e-08,3.065924758516302973e-08,2.494998693466186523e+00,-1.643513143062591553e-02,-1.921742781996726990e-02
5.141000000000000000e+03,1.150000000000000000e+01,2.500000000000000000e+00,1.361712254066560490e-08,3.120283764701525797e-08,2.495002985000610352e+00,-1.643582247197628021e-02,-1.921775937080383301e-02
5.142000000000000000e+03,1.160000038146972656e+01,2.500000000000000000e+00,1.373616775879327179e-08,3.175119189791075769e-08,2.495007276535034180e+00,-1.643672399222850800e-02,-1.921789161860942841e-02
5.143000000000000000e+03,1.169999980926513672e+01,2.500000000000000000e+00,1.385521208874251897e-08,3.230429612699481368e-08,2.495011091232299805e+00,-1.643779687583446503e-02,-1.921782270073890686e-02
5.144000000000000000e+03,1.180000019073486328e+01,2.500000000000000000e+00,1.397425730687018586e-08,3.286216454512214113e-08,2.495014905929565430e+00,-1.643900386989116669e-02,-1.921813003718852997e-02
5.145000000000000000e+03,1.189999961853027344e+01,2.500000000000000000e+00,1.409330252499785274e-08,3.342479004686538246e-08,2.495018243789672852e+00,-1.644031517207622528e-02,-1.921804621815681458e-02
5.146000000000000000e+03,1.200000000000000000e+01,2.500000000000000000e+00,1.421234774312551963e-08,3.399217618493821647e-08,2.495021581649780273e+00,-1.644170470535755157e-02,-1.921833865344524384e-02
5.147000000000000000e+03,1.210000038146972656e+01,2.500000000000000000e+00,1.433139384943160621e-08,3.456432295934064314e-08,2.495024681091308594e+00,-1.644314639270305634e-02,-1.921843178570270538e-02
5.148000000000000000e+03,1.219999980926513672e+01,2.500000000000000000e+00,1.445043906755927310e-08,3.514122326464530488e-08,2.495027542114257812e+00,-1.644462160766124725e-02,-1.921832561492919922e-02
5.149000000000000000e+03,1.230000019073486328e+01,2.500000000000000000e+00,1.456948606204377938e-08,3.572288775899323809e-08,2.495030164718627930e+00,-1.644611172378063202e-02,-1.921859756112098694e-02
5.150000000000000000e+03,1.239999961853027344e+01,2.500000000000000000e+00,1.468853128017144627e-08,3.630930933695708518e-08,2.495032787322998047e+00,-1.644760183990001678e-02,-1.921847835183143616e-02
5.151000000000000000e+03,1.250000000000000000e+01,2.500000000000000000e+00,1.480757738647753285e-08,3.690049155125052494e-08,2.495035171508789062e+00,-1.644908078014850616e-02,-1.921873725950717926e-02
5.152000000000000000e+03,1.260000038146972656e+01,2.500000000000000000e+00,1.492662526914045884e-08,3.749643440187355736e-08,2.495037317276000977e+00,-1.645053736865520477e-02,-1.921879686415195465e-02
5.153000000000000000e+03,1.269999980926513672e+01,2.500000000000000000e+00,1.504566959908970603e-08,3.809713078339882486e-08,2.495039224624633789e+00,-1.645196229219436646e-02,-1.921865902841091156e-02
5.154000000000000000e+03,1.280000019073486328e+01,2.500000000000000000e+00,1.516471748175263201e-08,3.870259135396736383e-08,2.495041131973266602e+00,-1.645334810018539429e-02,-1.921890117228031158e-02
5.155000000000000000e+03,1.289999961853027344e+01,2.500000000000000000e+00,1.528376358805871860e-08,3.931280545543813787e-08,2.495042800903320312e+00,-1.645469106733798981e-02,-1.921875216066837311e-02
5.156000000000000000e+03,1.300000000000000000e+01,2.500000000000000000e+00,1.540280969436480518e-08,3.992778374595218338e-08,2.495044231414794922e+00,-1.645598560571670532e-02,-1.921898312866687775e-02
5.157000000000000000e+03,1.310000038146972656e+01,2.500000000000000000e+00,1.552185757702773117e-08,4.054752267279582156e-08,2.495045661926269531e+00,-1.645722612738609314e-02,-1.921901851892471313e-02
5.158000000000000000e+03,1.319999980926513672e+01,2.500000000000000000e+00,1.564090368333381775e-08,4.117201157782801602e-08,2.495047092437744141e+00,-1.645841449499130249e-02,-1.921885833144187927e-02
5.159000000000000000e+03,1.330000019073486328e+01,2.500000000000000000e+00,1.575995156599674374e-08,4.180126822461716074e-08,2.495048284530639648e+00,-1.645954698324203491e-02,-1.921907812356948853e-02
5.160000000000000000e+03,1.339999961853027344e+01,2.500000000000000000e+00,1.587899767230283032e-08,4.243527840230854054e-08,2.495049476623535156e+00,-1.646062172949314117e-02,-1.921891048550605774e-02
5.161000000000000000e+03,1.350000000000000000e+01,2.500000000000000000e+00,1.599804555496575631e-08,4.307405276904319180e-08,2.495050430297851562e+00,-1.646164059638977051e-02,-1.921912468969821930e-02
5.162000000000000000e+03,1.360000038146972656e+01,2.500000000000000000e+00,1.611709343762868230e-08,4.371758421939375694e-08,2.495051383972167969e+00,-1.646260358393192291e-02,-1.921914331614971161e-02
5.163000000000000000e+03,1.369999980926513672e+01,2.500000000000000000e+00,1.623613954393476888e-08,4.436587275336023595e-08,2.495052099227905273e+00,-1.646351069211959839e-02,-1.921897009015083313e-02
5.164000000000000000e+03,1.380000019073486328e+01,2.500000000000000000e+00,1.635518742659769487e-08,4.501892192365630763e-08,2.495052814483642578e+00,-1.646436378359794617e-02,-1.921918056905269623e-02
5.165000000000000000e+03,1.389999961853027344e+01,2.500000000000000000e+00,1.647423353290378145e-08,4.567672817756829318e-08,2.495053529739379883e+00,-1.646516285836696625e-02,-1.921900920569896698e-02
5.166000000000000000e+03,1.400000000000000000e+01,2.500000000000000000e+00,1.659328141556670744e-08,4.633929862052355020e-08,2.495054006576538086e+00,-1.646591164171695709e-02,-1.921922154724597931e-02
5.167000000000000000e+03,1.410000038146972656e+01,2.500000000000000000e+00,1.671232929822963342e-08,4.700662614709472109e-08,2.495054721832275391e+00,-1.646661013364791870e-02,-1.921924576163291931e-02
5.168000000000000000e+03,1.419999980926513672e+01,2.500000000000000000e+00,1.683137540453572001e-08,4.767870720456812705e-08,2.495055198669433594e+00,-1.646726205945014954e-02,-1.921908371150493622e-02
5.169000000000000000e+03,1.430000019073486328e+01,2.500000000000000000e+00,1.695042328719864599e-08,4.835555600379848329e-08,2.495055675506591797e+00,-1.646786928176879883e-02,-1.921931281685829163e-02
5.170000000000000000e+03,1.439999961853027344e+01,2.500000000000000000e+00,1.706947116986157198e-08,4.903715478121739579e-08,2.495055913925170898e+00,-1.646843366324901581e-02,-1.921916566789150238e-02
5.171000000000000000e+03,1.450000000000000000e+01,2.500000000000000000e+00,1.718851905252449797e-08,4.972352130039325857e-08,2.495056390762329102e+00,-1.646895892918109894e-02,-1.921941712498664856e-02
5.172000000000000000e+03,1.460000038146972656e+01,2.500000000000000000e+00,1.730756693518742395e-08,5.041464490318503522e-08,2.495056629180908203e+00,-1.646944694221019745e-02,-1.921949163079261780e-02
5.173000000000000000e+03,1.469999980926513672e+01,2.500000000000000000e+00,1.742661304149351054e-08,5.111052203687904694e-08,2.495056867599487305e+00,-1.646989956498146057e-02,-1.921939291059970856e-02
5.174000000000000000e+03,1.480000019073486328e+01,2.500000000000000000e+00,1.754566092415643652e-08,5.181116335961633013e-08,2.495057106018066406e+00,-1.647032052278518677e-02,-1.921970210969448090e-02
5.175000000000000000e+03,1.489999961853027344e+01,2.500000000000000000e+00,1.766470880681936251e-08,5.251655821325584839e-08,2.495057344436645508e+00,-1.647071354091167450e-02,-1.921965926885604858e-02
5.176000000000000000e+03,1.500000000000000000e+01,2.500000000000000000e+00,1.778375668948228849e-08,5.322671725593863812e-08,2.495057344436645508e+00,-1.647107861936092377e-02,-1.922003552317619324e-02
5.177000000000000000e+03,1.510000038146972656e+01,2.500000000000000000e+00,1.790280457214521448e-08,5.394164048766469932e-08,2.495057582855224609e+00,-1.647142134606838226e-02,-1.922026649117469788e-02
5.178000000000000000e+03,1.519999980926513672e+01,2.500000000000000000e+00,1.802185067845130106e-08,5.466131014486563799e-08,2.495057582855224609e+00,-1.647174358367919922e-02,-1.922035589814186096e-02
5.179000000000000000e+03,1.530000019073486328e+01,2.500000000000000000e+00,1.814089856111422705e-08,5.538574754382352694e-08,2.495057821273803711e+00,-1.647204905748367310e-02,-1.922089606523513794e-02
5.180000000000000000e+03,1.539999961853027344e+01,2.500000000000000000e+00,1.825994644377715304e-08,5.611493847368365095e-08,2.495057821273803711e+00,-1.647233963012695312e-02,-1.922112889587879181e-02
5.181000000000000000e+03,1.550000000000000000e+01,2.500000000000000000e+00,1.837899432644007902e-08,5.684889359258704644e-08,2.495057821273803711e+00,-1.647261902689933777e-02,-1.922183670103549957e-02
5.182000000000000000e+03,1.560000038146972656e+01,2.500000000000000000e+00,1.849804220910300501e-08,5.758760934782003460e-08,2.495058059692382812e+00,-1.647289097309112549e-02,-1.922246254980564117e-02
5.183000000000000000e+03,1.569999980926513672e+01,2.500000000000000000e+00,1.861708831540909159e-08,5.833107508124157903e-08,2.495058059692382812e+00,-1.647316105663776398e-02,-1.922302134335041046e-02
5.184000000000000000e+03,1.580000019073486328e+01,2.500000000000000000e+00,1.873613619807201758e-08,5.907930855642007373e-08,2.495058059692382812e+00,-1.647342927753925323e-02,-1.922411471605300903e-02
5.185000000000000000e+03,1.589999961853027344e+01,2.500000000000000000e+00,1.885518408073494356e-08,5.983229556250080350e-08,2.495058059692382812e+00,-1.647370308637619019e-02,-1.922499947249889374e-02
5.186000000000000000e+03,1.600000000000000000e+01,2.500000000000000000e+00,1.897423196339786955e-08,6.059004675762480474e-08,2.495058059692382812e+00,-1.647398434579372406e-02,-1.922647096216678619e-02
5.187000000000000000e+03,1.610000038146972656e+01,2.500000000000000000e+00,1.909327984606079553e-08,6.135255858907839865e-08,2.495057821273803711e+00,-1.647427678108215332e-02,-1.922798901796340942e-02
5.188000000000000000e+03,1.620000076293945312e+01,2.500000000000000000e+00,1.921232772872372152e-08,6.211982395143422764e-08,2.495057821273803711e+00,-1.647458784282207489e-02,-1.922978088259696960e-02
5.189000000000000000e+03,1.629999923706054688e+01,2.500000000000000000e+00,1.933137383502980811e-08,6.289183573926493409e-08,2.495057821273803711e+00,-1.647492125630378723e-02,-1.923150382936000824e-02
5.190000000000000000e+03,1.639999961853027344e+01,2.500000000000000000e+00,1.945042171769273409e-08,6.366862237427994842e-08,2.495057821273803711e+00,-1.647528260946273804e-02,-1.923435926437377930e-02
5.191000000000000000e+03,1.650000000000000000e+01,2.500000000000000000e+00,1.956946960035566008e-08,6.445016964562455541e-08,2.495057582855224609e+00,-1.647567562758922577e-02,-1.923724636435508728e-02
5.192000000000000000e+03,1.660000038146972656e+01,2.500000000000000000e+00,1.968851748301858606e-08,6.523647755329875508e-08,2.495057582855224609e+00,-1.647610776126384735e-02,-1.924060471355915070e-02
5.193000000000000000e+03,1.670000076293945312e+01,2.500000000000000000e+00,1.980756714203835145e-08,6.602753899187518982e-08,2.495057344436645508e+00,-1.647658273577690125e-02,-1.924449950456619263e-02
5.194000000000000000e+03,1.679999923706054688e+01,2.500000000000000000e+00,1.992661147198759863e-08,6.682334685592650203e-08,2.495057106018066406e+00,-1.647710613906383514e-02,-1.924861595034599304e-02
5.195000000000000000e+03,1.689999961853027344e+01,2.500000000000000000e+00,2.004565935465052462e-08,6.762392956716212211e-08,2.495057106018066406e+00,-1.647768542170524597e-02,-1.925417780876159668e-02
5.196000000000000000e+03,1.700000000000000000e+01,2.500000000000000000e+00,2.016470901367029001e-08,6.842926580929997726e-08,2.495056867599487305e+00,-1.647832244634628296e-02,-1.926011219620704651e-02
5.197000000000000000e+03,1.710000038146972656e+01,2.500000000000000000e+00,2.028375689633321599e-08,6.923936979319478269e-08,2.495056629180908203e+00,-1.647902466356754303e-02,-1.926688663661479950e-02
5.198000000000000000e+03,1.720000076293945312e+01,2.500000000000000000e+00,2.040280477899614198e-08,7.005422730799182318e-08,2.495056390762329102e+00,-1.647979207336902618e-02,-1.927458494901657104e-02
5.199000000000000000e+03,1.729999923706054688e+01,2.500000000000000000e+00,2.052185088530222856e-08,7.087382414283638354e-08,2.495056152343750000e+00,-1.648062840104103088e-02,-1.928290538489818573e-02
5.200000000000000000e+03,1.739999961853027344e+01,2.500000000000000000e+00,2.064089876796515455e-08,7.169819582486525178e-08,2.495055913925170898e+00,-1.648153364658355713e-02,-1.929308660328388214e-02
5.201000000000000000e+03,1.750000000000000000e+01,2.500000000000000000e+00,2.075994665062808053e-08,7.252732814322371269e-08,2.495055437088012695e+00,-1.648250408470630646e-02,-1.930405013263225555e-02
5.202000000000000000e+03,1.760000038146972656e+01,2.500000000000000000e+00,2.087899453329100652e-08,7.336122109791176626e-08,2.495055198669433594e+00,-1.648353412747383118e-02,-1.931624859571456909e-02
5.203000000000000000e+03,1.770000076293945312e+01,2.500000000000000000e+00,2.099804241595393250e-08,7.419987468892941251e-08,2.495054960250854492e+00,-1.648461446166038513e-02,-1.932973228394985199e-02
5.204000000000000000e+03,1.779999923706054688e+01,2.500000000000000000e+00,2.111708852226001909e-08,7.504326759999457863e-08,2.495054483413696289e+00,-1.648572832345962524e-02,-1.934414543211460114e-02
5.205000000000000000e+03,1.789999961853027344e+01,2.500000000000000000e+00,2.123613640492294508e-08,7.589142825281669502e-08,2.495054244995117188e+00,-1.648685522377490997e-02,-1.936063729226589203e-02
5.206000000000000000e+03,1.800000000000000000e+01,2.500000000000000000e+00,2.135518428758587106e-08,7.674435664739576168e-08,2.495053768157958984e+00,-1.648796908557415009e-02,-1.937801577150821686e-02
5.207000000000000000e+03,1.810000038146972656e+01,2.500000000000000000e+00,2.147423217024879705e-08,7.760203857287706342e-08,2.495053529739379883e+00,-1.648903265595436096e-02,-1.939657144248485565e-02
5.208000000000000000e+03,1.820000076293945312e+01,2.500000000000000000e+00,2.159328005291172303e-08,7.846448113468795782e-08,2.495053291320800781e+00,-1.649000309407711029e-02,-1.941615343093872070e-02
5.209000000000000000e+03,1.829999923706054688e+01,2.500000000000000000e+00,2.171232615921780962e-08,7.933166301654637209e-08,2.495052814483642578e+00,-1.649082824587821960e-02,-1.943614520132541656e-02
5.210000000000000000e+03,1.839999961853027344e+01,2.500000000000000000e+00,2.183137404188073560e-08,8.020362685101645184e-08,2.495052814483642578e+00,-1.649144850671291351e-02,-1.945738680660724640e-02
5.211000000000000000e+03,1.850000000000000000e+01,2.500000000000000000e+00,2.195042192454366159e-08,8.108034421638876665e-08,2.495052576065063477e+00,-1.649179682135581970e-02,-1.947831548750400543e-02
5.212000000000000000e+03,1.860000038146972656e+01,2.500000000000000000e+00,2.206947158356342698e-08,8.196181511266331654e-08,2.495052576065063477e+00,-1.649179868400096893e-02,-1.949879713356494904e-02
5.213000000000000000e+03,1.870000076293945312e+01,2.500000000000000000e+00,2.218851946622635296e-08,8.284805375069481670e-08,2.495052814483642578e+00,-1.649137772619724274e-02,-1.951819658279418945e-02
5.214000000000000000e+03,1.879999923706054688e+01,2.500000000000000000e+00,2.230756557253243955e-08,8.373903170877383673e-08,2.495053052902221680e+00,-1.649046130478382111e-02,-1.953538507223129272e-02
5.215000000000000000e+03,1.889999961853027344e+01,2.500000000000000000e+00,2.242661345519536553e-08,8.463478451403716463e-08,2.495053291320800781e+00,-1.648898236453533173e-02,-1.955065876245498657e-02
5.216000000000000000e+03,1.900000000000000000e+01,2.500000000000000000e+00,2.254566133785829152e-08,8.553530506105744280e-08,2.495054006576538086e+00,-1.648688130080699921e-02,-1.956191286444664001e-02
5.217000000000000000e+03,1.910000038146972656e+01,2.500000000000000000e+00,2.266470922052121750e-08,8.644057913897995604e-08,2.495054960250854492e+00,-1.648412458598613739e-02,-1.956850476562976837e-02
5.218000000000000000e+03,1.920000076293945312e+01,2.500000000000000000e+00,2.278375710318414349e-08,8.735062095865941956e-08,2.495055913925170898e+00,-1.648069918155670166e-02,-1.956936530768871307e-02
5.219000000000000000e+03,1.929999923706054688e+01,2.500000000000000000e+00,2.290280320949023007e-08,8.826540209838640294e-08,2.495057106018066406e+00,-1.647662371397018433e-02,-1.956304162740707397e-02
5.220000000000000000e+03,1.939999961853027344e+01,2.500000000000000000e+00,2.302185109215315606e-08,8.918496519072505180e-08,2.495058536529541016e+00,-1.647195219993591309e-02,-1.954966783523559570e-02
5.221000000000000000e+03,1.950000000000000000e+01,2.500000000000000000e+00,2.314089897481608205e-08,9.010929602482065093e-08,2.495059967041015625e+00,-1.646677777171134949e-02,-1.952717080712318420e-02
5.222000000000000000e+03,1.960000038146972656e+01,2.500000000000000000e+00,2.325994685747900803e-08,9.103838749524584273e-08,2.495061635971069336e+00,-1.646122895181179047e-02,-1.949517615139484406e-02
5.223000000000000000e+03,1.970000076293945312e+01,2.500000000000000000e+00,2.337899474014193402e-08,9.197225381285534240e-08,2.495063304901123047e+00,-1.645546220242977142e-02,-1.945313997566699982e-02
5.224000000000000000e+03,1.979999923706054688e+01,2.500000000000000000e+00,2.349804084644802060e-08,9.291085945051236195e-08,2.495065212249755859e+00,-1.644965447485446930e-02,-1.940038427710533142e-02
5.225000000000000000e+03,1.989999961853027344e+01,2.500000000000000000e+00,2.361708872911094659e-08,9.385426125163576216e-08,2.495066881179809570e+00,-1.644401252269744873e-02,-1.933805458247661591e-02
5.226000000000000000e+03,2.000000000000000000e+01,2.500000000000000000e+00,2.373613661177387257e-08,9.480242368908875505e-08,2.495068550109863281e+00,-1.643864251673221588e-02,-1.926526799798011780e-02
5.227000000000000000e+03,0.000000000000000000e+00,2.599999904632568359e+00,1.017126660928556880e-37,2.305822750191689675e-38,2.256175518035888672e+00,6.768526434898376465e-01,-1.654397100210189819e-01
5.228000000000000000e+03,1.000000014901161194e-01,2.599999904632568359e+00,9.776760651059035467e-11,-2.048301285528797422e-11,2.242108345031738281e+00,6.299622058868408203e-01,-1.983625739812850952e-01
5.229000000000000000e+03,2.000000029802322388e-01,2.599999904632568359e+00,1.968119001105606003e-10,-3.369660800389695510e-11,2.257455110549926758e+00,5.917506217956542969e-01,-1.732583343982696533e-01
5.230000000000000000e+03,3.000000119209289551e-01,2.599999904632568359e+00,2.971295709475185731e-10,-3.985030708197889737e-11,2.272753000259399414e+00,5.536070466041564941e-01,-1.505184769630432129e-01
5.231000000000000000e+03,4.000000059604644775e-01,2.599999904632568359e+00,3.987092045409923458e-10,-3.914864266096884649e-11,2.287894725799560547e+00,5.157410502433776855e-01,-1.300781071186065674e-01
5.232000000000000000e+03,5.000000000000000000e-01,2.599999904632568359e+00,5.015309834099923592e-10,-3.178936280878730258e-11,2.302767992019653320e+00,4.783666431903839111e-01,-1.118496432900428772e-01
5.233000000000000000e+03,6.000000238418579102e-01,2.599999904632568359e+00,6.055667078896931343e-10,-1.796183340951884588e-11,2.317258358001708984e+00,4.416960775852203369e-01,-9.572562575340270996e-02
5.234000000000000000e+03,6.999999880790710449e-01,2.599999904632568359e+00,7.107797128647064255e-10,2.154247917204865637e-12,2.331253767013549805e+00,4.059330523014068604e-01,-8.158218860626220703e-02
5.235000000000000000e+03,8.000000119209289551e-01,2.599999904632568359e+00,8.171258669698033827e-10,2.838998654219881956e-11,2.344648838043212891e+00,3.712666928768157959e-01,-6.928288191556930542e-02
5.236000000000000000e+03,8.999999761581420898e-01,2.599999904632568359e+00,9.245538223900950925e-10,6.058795826158203113e-11,2.357347726821899414e+00,3.378667235374450684e-01,-5.868250504136085510e-02
5.237000000000000000e+03,1.000000000000000000e+00,2.599999904632568359e+00,1.033006458150964590e-09,9.860281341422805212e-11,2.369268417358398438e+00,3.058793246746063232e-01,-4.963114112615585327e-02
5.238000000000000000e+03,1.100000023841857910e+00,2.599999904632568359e+00,1.142421490740730405e-09,1.423013651358218112e-10,2.380343437194824219e+00,2.754246592521667480e-01,-4.197758436203002930e-02
5.239000000000000000e+03,1.200000047683715820e+00,2.599999904632568359e+00,1.252733139445183497e-09,1.915626268722547820e-10,2.390522718429565430e+00,2.465955466032028198e-01,-3.557277098298072815e-02
5.240000000000000000e+03,1.299999952316284180e+00,2.599999904632568359e+00,1.363872903503704492e-09,2.462774706391002155e-10,2.399773120880126953e+00,2.194574326276779175e-01,-3.027242235839366913e-02
5.241000000000000000e+03,1.399999976158142090e+00,2.599999904632568359e+00,1.475771171932649395e-09,3.063484466103716386e-10,2.408079147338867188e+00,1.940490901470184326e-01,-2.593944966793060303e-02
5.242000000000000000e+03,1.500000000000000000e+00,2.599999904632568359e+00,1.588358111703769282e-09,3.716888186122702109e-10,2.415440797805786133e+00,1.703847348690032959e-01,-2.244539372622966766e-02
5.243000000000000000e+03,1.600000023841857910e+00,2.599999904632568359e+00,1.701564666944932469e-09,4.422221755451261060e-10,2.421872854232788086e+00,1.484562009572982788e-01,-1.967186480760574341e-02
5.244000000000000000e+03,1.700000047683715820e+00,2.599999904632568359e+00,1.815323336096241746e-09,5.178815154494031958e-10,2.427403450012207031e+00,1.282357871532440186e-01,-1.751108653843402863e-02
5.245000000000000000e+03,1.799999952316284180e+00,2.599999904632568359e+00,1.929569393155361468e-09,5.986084405940061970e-10,2.432070493698120117e+00,1.096792519092559814e-01,-1.586616598069667816e-02
5.246000000000000000e+03,1.899999976158142090e+00,2.599999904632568359e+00,2.044240776655215086e-09,6.843526856314952056e-10,2.435920715332031250e+00,9.272868931293487549e-02,-1.465114112943410873e-02
5.247000000000000000e+03,2.000000000000000000e+00,2.599999904632568359e+00,2.159279643976219631e-09,7.750707853304561468e-10,2.439007997512817383e+00,7.731559127569198608e-02,-1.379035972058773041e-02
5.248000000000000000e+03,2.099999904632568359e+00,2.599999904632568359e+00,2.274630928056353696e-09,8.707254917084128465e-10,2.441389560699462891e+00,6.336344033479690552e-02,-1.321815140545368195e-02
5.249000000000000000e+03,2.200000047683715820e+00,2.599999904632568359e+00,2.390244890904114072e-09,9.712856074983733379e-10,2.443126201629638672e+00,5.079010874032974243e-02,-1.287811342626810074e-02
5.250000000000000000e+03,2.299999952316284180e+00,2.599999904632568359e+00,2.506074681107861579e-09,1.076723821213931842e-09,2.444278955459594727e+00,3.951015695929527283e-02,-1.272196322679519653e-02
5.251000000000000000e+03,2.400000095367431641e+00,2.599999904632568359e+00,2.622078554281870311e-09,1.187018372483805706e-09,2.444909095764160156e+00,2.943643927574157715e-02,-1.270932611078023911e-02
5.252000000000000000e+03,2.500000000000000000e+00,2.599999904632568359e+00,2.738217874664883311e-09,1.302149721382761527e-09,2.445076465606689453e+00,2.048189006745815277e-02,-1.280613057315349579e-02
5.253000000000000000e+03,2.599999904632568359e+00,2.599999904632568359e+00,2.854459335566161826e-09,1.422102546833059478e-09,2.444838523864746094e+00,1.256057620048522949e-02,-1.298452820628881454e-02
5.254000000000000000e+03,2.700000047683715820e+00,2.599999904632568359e+00,2.970772516874831126e-09,1.546864081269916369e-09,2.444249868392944336e+00,5.588800180703401566e-03,-1.322162151336669922e-02
5.255000000000000000e+03,2.799999952316284180e+00,2.599999904632568359e+00,3.087130329149090358e-09,1.676423000418481024e-09,2.443361997604370117e+00,-5.140933208167552948e-04,-1.349874772131443024e-02
5.256000000000000000e+03,2.900000095367431641e+00,2.599999904632568359e+00,3.203509901794632242e-09,1.810771310672976142e-09,2.442222595214843750e+00,-5.825267639011144638e-03,-1.380130928009748459e-02
5.257000000000000000e+03,3.000000000000000000e+00,2.599999904632568359e+00,3.319890806707803677e-09,1.949900907405321959e-09,2.440875053405761719e+00,-1.041786093264818192e-02,-1.411745697259902954e-02
5.258000000000000000e+03,3.099999904632568359e+00,2.599999904632568359e+00,3.436255946454025434e-09,2.093806461545000275e-09,2.439359426498413086e+00,-1.436083484441041946e-02,-1.443829946219921112e-02
5.259000000000000000e+03,3.200000047683715820e+00,2.599999904632568359e+00,3.552590666089372462e-09,2.242483754244517513e-09,2.437711715698242188e+00,-1.771878264844417572e-02,-1.475696451961994171e-02
5.260000000000000000e+03,3.299999952316284180e+00,2.599999904632568359e+00,3.668882531115968959e-09,2.395927900522565324e-09,2.435964107513427734e+00,-2.055186778306961060e-02,-1.506820507347583771e-02
5.261000000000000000e+03,3.400000095367431641e+00,2.599999904632568359e+00,3.785121549526593299e-09,2.554137124022304306e-09,2.434145689010620117e+00,-2.291591651737689972e-02,-1.536854729056358337e-02
5.262000000000000000e+03,3.500000000000000000e+00,2.599999904632568359e+00,3.901299727715468180e-09,2.717107872030055660e-09,2.432281255722045898e+00,-2.486244775354862213e-02,-1.565528102219104767e-02
5.263000000000000000e+03,3.599999904632568359e+00,2.599999904632568359e+00,4.017410404344445851e-09,2.884838812278189835e-09,2.430393218994140625e+00,-2.643884904682636261e-02,-1.592694595456123352e-02
5.264000000000000000e+03,3.700000047683715820e+00,2.599999904632568359e+00,4.133448694432217962e-09,3.057329056588287131e-09,2.428500175476074219e+00,-2.768853306770324707e-02,-1.618264429271221161e-02
5.265000000000000000e+03,3.799999952316284180e+00,2.599999904632568359e+00,4.249411489354315563e-09,3.234576606558903222e-09,2.426619052886962891e+00,-2.865111455321311951e-02,-1.642188429832458496e-02
5.266000000000000000e+03,3.900000095367431641e+00,2.599999904632568359e+00,4.365295680486269703e-09,3.416581462190038110e-09,2.424763202667236328e+00,-2.936264313757419586e-02,-1.664492115378379822e-02
5.267000000000000000e+03,4.000000000000000000e+00,2.599999904632568359e+00,4.481100379649660681e-09,3.603342069169457318e-09,2.422944545745849609e+00,-2.985579706728458405e-02,-1.685192808508872986e-02
5.268000000000000000e+03,4.099999904632568359e+00,2.599999904632568359e+00,4.596825142755278648e-09,3.794858205452555922e-09,2.421172618865966797e+00,-3.016010671854019165e-02,-1.704362593591213226e-02
5.269000000000000000e+03,4.199999809265136719e+00,2.599999904632568359e+00,4.712469969803123604e-09,3.991130093083938846e-09,2.419454813003540039e+00,-3.030217997729778290e-02,-1.722069643437862396e-02
5.270000000000000000e+03,4.300000190734863281e+00,2.599999904632568359e+00,4.828036637150034949e-09,4.192158620242025791e-09,2.417797803878784180e+00,-3.030590340495109558e-02,-1.738404482603073120e-02
5.271000000000000000e+03,4.400000095367431641e+00,2.599999904632568359e+00,4.943525588885222533e-09,4.397940678302347806e-09,2.416205644607543945e+00,-3.019266016781330109e-02,-1.753426156938076019e-02
5.272000000000000000e+03,4.500000000000000000e+00,2.599999904632568359e+00,5.058938601365525756e-09,4.608478487710954141e-09,2.414681911468505859e+00,-2.998151816427707672e-02,-1.767250150442123413e-02
5.273000000000000000e+03,4.599999904632568359e+00,2.599999904632568359e+00,5.174278339126203718e-09,4.823771160289425097e-09,2.413229227066040039e+00,-2.968942932784557343e-02,-1.779955253005027771e-02
5.274000000000000000e+03,4.699999809265136719e+00,2.599999904632568359e+00,5.289547022613305671e-09,5.043819140126970524e-09,2.411848545074462891e+00,-2.933140844106674194e-02,-1.791626401245594025e-02
5.275000000000000000e+03,4.800000190734863281e+00,2.599999904632568359e+00,5.404748204540510415e-09,5.268623315402010121e-09,2.410540580749511719e+00,-2.892069891095161438e-02,-1.802353933453559875e-02
5.276000000000000000e+03,4.900000095367431641e+00,2.599999904632568359e+00,5.519883661264657349e-09,5.498181465668494639e-09,2.409305095672607422e+00,-2.846894413232803345e-02,-1.812187954783439636e-02
5.277000000000000000e+03,5.000000000000000000e+00,2.599999904632568359e+00,5.634956501410215424e-09,5.732495367283263477e-09,2.408141136169433594e+00,-2.798632159829139709e-02,-1.821227557957172394e-02
5.278000000000000000e+03,5.099999904632568359e+00,2.599999904632568359e+00,5.749970721780073291e-09,5.971565020246316635e-09,2.407047986984252930e+00,-2.748169004917144775e-02,-1.829531602561473846e-02
5.279000000000000000e+03,5.199999809265136719e+00,2.599999904632568359e+00,5.864928098731070349e-09,6.215389980468444264e-09,2.406023502349853516e+00,-2.696272358298301697e-02,-1.837161928415298462e-02
5.280000000000000000e+03,5.300000190734863281e+00,2.599999904632568359e+00,5.979833073155305101e-09,6.463972468395695614e-09,2.405065774917602539e+00,-2.643601782619953156e-02,-1.844184659421443939e-02
5.281000000000000000e+03,5.400000095367431641e+00,2.599999904632568359e+00,6.094687421409616945e-09,6.717308931314391884e-09,2.404172658920288086e+00,-2.590722218155860901e-02,-1.850624755024909973e-02
5.282000000000000000e+03,5.500000000000000000e+00,2.599999904632568359e+00,6.209494696207684683e-09,6.975402033759792175e-09,2.403341531753540039e+00,-2.538111247122287750e-02,-1.856557279825210571e-02
5.283000000000000000e+03,5.599999904632568359e+00,2.599999904632568359e+00,6.324258006173977265e-09,7.238251331642686637e-09,2.402570009231567383e+00,-2.486170455813407898e-02,-1.862017065286636353e-02
5.284000000000000000e+03,5.699999809265136719e+00,2.599999904632568359e+00,6.438980015843753790e-09,7.505856380873865419e-09,2.401855230331420898e+00,-2.435233257710933685e-02,-1.867043413221836090e-02
5.285000000000000000e+03,5.800000190734863281e+00,2.599999904632568359e+00,6.553663833841483211e-09,7.778219845988587622e-09,2.401194572448730469e+00,-2.385572902858257294e-02,-1.871681213378906250e-02
5.286000000000000000e+03,5.900000095367431641e+00,2.599999904632568359e+00,6.668311236524004926e-09,8.055338618362384295e-09,2.400585174560546875e+00,-2.337409928441047668e-02,-1.875936053693294525e-02
5.287000000000000000e+03,6.000000000000000000e+00,2.599999904632568359e+00,6.782925332515787886e-09,8.337213586173675139e-09,2.400023937225341797e+00,-2.290916815400123596e-02,-1.879864372313022614e-02
5.288000000000000000e+03,6.099999904632568359e+00,2.599999904632568359e+00,6.897508342262881342e-09,8.623845637600879854e-09,2.399508714675903320e+00,-2.246225811541080475e-02,-1.883484423160552979e-02
5.289000000000000000e+03,6.199999809265136719e+00,2.599999904632568359e+00,7.012062930300544394e-09,8.915233884465578740e-09,2.399036169052124023e+00,-2.203433588147163391e-02,-1.886820793151855469e-02
5.290000000000000000e+03,6.300000190734863281e+00,2.599999904632568359e+00,7.126591317074826293e-09,9.211380991303030896e-09,2.398603916168212891e+00,-2.162605151534080505e-02,-1.889904029667377472e-02
5.291000000000000000e+03,6.400000095367431641e+00,2.599999904632568359e+00,7.241095278942566438e-09,9.512284293577977223e-09,2.398209571838378906e+00,-2.123779803514480591e-02,-1.892727799713611603e-02
5.292000000000000000e+03,6.500000000000000000e+00,2.599999904632568359e+00,7.355576592260604230e-09,9.817944679468837421e-09,2.397850036621093750e+00,-2.086973004043102264e-02,-1.895337179303169250e-02
5.293000000000000000e+03,6.599999904632568359e+00,2.599999904632568359e+00,7.470037033385779068e-09,1.012836214897561149e-08,2.397523403167724609e+00,-2.052181214094161987e-02,-1.897740550339221954e-02
5.294000000000000000e+03,6.699999809265136719e+00,2.599999904632568359e+00,7.584479710942559905e-09,1.044353670209829943e-08,2.397227048873901367e+00,-2.019384130835533142e-02,-1.899953372776508331e-02
5.295000000000000000e+03,6.800000190734863281e+00,2.599999904632568359e+00,7.698904624930946738e-09,1.076347100337216034e-08,2.396959066390991211e+00,-1.988548040390014648e-02,-1.901998370885848999e-02
5.296000000000000000e+03,6.900000095367431641e+00,2.599999904632568359e+00,7.813313551707778970e-09,1.108816150008351542e-08,2.396717071533203125e+00,-1.959628425538539886e-02,-1.903861761093139648e-02
5.297000000000000000e+03,7.000000000000000000e+00,2.599999904632568359e+00,7.927709155808315700e-09,1.141760908041078437e-08,2.396499156951904297e+00,-1.932570524513721466e-02,-1.905582472681999207e-02
5.298000000000000000e+03,7.099999904632568359e+00,2.599999904632568359e+00,8.042090549054137227e-09,1.175181463253238690e-08,2.396303415298461914e+00,-1.907313428819179535e-02,-1.907162927091121674e-02
5.299000000000000000e+03,7.199999809265136719e+00,2.599999904632568359e+00,8.156461284158922354e-09,1.209077815644832299e-08,2.396127939224243164e+00,-1.883789710700511932e-02,-1.908613368868827820e-02
5.300000000000000000e+03,7.300000190734863281e+00,2.599999904632568359e+00,8.270821361122671078e-09,1.243450142851543205e-08,2.395971298217773438e+00,-1.861928217113018036e-02,-1.909952051937580109e-02
5.301000000000000000e+03,7.400000095367431641e+00,2.599999904632568359e+00,8.385171668123803101e-09,1.278298089602003529e-08,2.395831584930419922e+00,-1.841655001044273376e-02,-1.911160908639431000e-02
5.302000000000000000e+03,7.500000000000000000e+00,2.599999904632568359e+00,8.499513093340738124e-09,1.313621833531897209e-08,2.395707607269287109e+00,-1.822894066572189331e-02,-1.912274770438671112e-02
5.303000000000000000e+03,7.599999904632568359e+00,2.599999904632568359e+00,8.613847413130315545e-09,1.349421374641224247e-08,2.395597934722900391e+00,-1.805568300187587738e-02,-1.913292892277240753e-02
5.304000000000000000e+03,7.699999809265136719e+00,2.599999904632568359e+00,8.728174627492535365e-09,1.385696712929984642e-08,2.395501136779785156e+00,-1.789600774645805359e-02,-1.914222352206707001e-02
5.305000000000000000e+03,7.800000190734863281e+00,2.599999904632568359e+00,8.842495624605817284e-09,1.422448114851704304e-08,2.395416259765625000e+00,-1.774914748966693878e-02,-1.915078423917293549e-02
5.306000000000000000e+03,7.900000095367431641e+00,2.599999904632568359e+00,8.956811292648581002e-09,1.459675225135015353e-08,2.395341873168945312e+00,-1.761435158550739288e-02,-1.915840432047843933e-02
5.307000000000000000e+03,8.000000000000000000e+00,2.599999904632568359e+00,9.071121631620826520e-09,1.497378043779917789e-08,2.395277261734008789e+00,-1.749088056385517120e-02,-1.916540972888469696e-02
5.308000000000000000e+03,8.100000381469726562e+00,2.599999904632568359e+00,9.185428417879393237e-09,1.535556926057779492e-08,2.395221233367919922e+00,-1.737801358103752136e-02,-1.917186006903648376e-02
5.309000000000000000e+03,8.199999809265136719e+00,2.599999904632568359e+00,9.299730763245861453e-09,1.574211339061548642e-08,2.395173072814941406e+00,-1.727505587041378021e-02,-1.917743682861328125e-02
5.310000000000000000e+03,8.300000190734863281e+00,2.599999904632568359e+00,9.414030444077070570e-09,1.613341993333961000e-08,2.395132064819335938e+00,-1.718133501708507538e-02,-1.918282918632030487e-02
5.311000000000000000e+03,8.399999618530273438e+00,2.599999904632568359e+00,9.528326572194600885e-09,1.652948178332280804e-08,2.395097017288208008e+00,-1.709620468318462372e-02,-1.918734796345233917e-02
5.312000000000000000e+03,8.500000000000000000e+00,2.599999904632568359e+00,9.642620923955291801e-09,1.693030426963559876e-08,2.395067691802978516e+00,-1.701904647052288055e-02,-1.919176429510116577e-02
5.313000000000000000e+03,8.600000381469726562e+00,2.599999904632568359e+00,9.756912611180723616e-09,1.733588739227798214e-08,2.395043373107910156e+00,-1.694927550852298737e-02,-1.919557154178619385e-02
5.314000000000000000e+03,8.699999809265136719e+00,2.599999904632568359e+00,9.871202522049316030e-09,1.774622404582260060e-08,2.395023345947265625e+00,-1.688633114099502563e-02,-1.919880136847496033e-02
5.315000000000000000e+03,8.800000190734863281e+00,2.599999904632568359e+00,9.985491544739488745e-09,1.816132311205365113e-08,2.395007371902465820e+00,-1.682968065142631531e-02,-1.920203864574432373e-02
5.316000000000000000e+03,8.899999618530273438e+00,2.599999904632568359e+00,1.009977790289440236e-08,1.858117748554377613e-08,2.394994497299194336e+00,-1.677882671356201172e-02,-1.920458115637302399e-02
5.317000000000000000e+03,9.000000000000000000e+00,2.599999904632568359e+00,1.021406426104931597e-08,1.900579427172033320e-08,2.394984960556030273e+00,-1.673329621553421021e-02,-1.920718885958194733e-02
5.318000000000000000e+03,9.100000381469726562e+00,2.599999904632568359e+00,1.032834973102580989e-08,1.943517169422648294e-08,2.394977807998657227e+00,-1.669264584779739380e-02,-1.920934021472930908e-02
5.319000000000000000e+03,9.199999809265136719e+00,2.599999904632568359e+00,1.044263342464546440e-08,1.986930264763486775e-08,2.394973039627075195e+00,-1.665646210312843323e-02,-1.921106129884719849e-02
5.320000000000000000e+03,9.300000190734863281e+00,2.599999904632568359e+00,1.055691711826511892e-08,2.030819601372968464e-08,2.394970178604125977e+00,-1.662435196340084076e-02,-1.921292021870613098e-02
5.321000000000000000e+03,9.399999618530273438e+00,2.599999904632568359e+00,1.067119992370635373e-08,2.075184468708357599e-08,2.394968986511230469e+00,-1.659595780074596405e-02,-1.921420916914939880e-02
5.322000000000000000e+03,9.500000000000000000e+00,2.599999904632568359e+00,1.078548272914758854e-08,2.120025577312389942e-08,2.394969224929809570e+00,-1.657094061374664307e-02,-1.921567879617214203e-02
5.323000000000000000e+03,9.600000381469726562e+00,2.599999904632568359e+00,1.089976642276724306e-08,2.165342571913697611e-08,2.394970655441284180e+00,-1.654898561537265778e-02,-1.921679824590682983e-02
5.324000000000000000e+03,9.699999809265136719e+00,2.599999904632568359e+00,1.101404834003005817e-08,2.211135097240912728e-08,2.394973278045654297e+00,-1.652980223298072815e-02,-1.921758428215980530e-02
5.325000000000000000e+03,9.800000190734863281e+00,2.599999904632568359e+00,1.112833114547129298e-08,2.257404041472454992e-08,2.394976615905761719e+00,-1.651312224566936493e-02,-1.921859942376613617e-02
5.326000000000000000e+03,9.899999618530273438e+00,2.599999904632568359e+00,1.124261217455568840e-08,2.304148338794220763e-08,2.394980430603027344e+00,-1.649869978427886963e-02,-1.921912841498851776e-02
5.327000000000000000e+03,1.000000000000000000e+01,2.599999904632568359e+00,1.135689497999692321e-08,2.351368877384629741e-08,2.394984960556030273e+00,-1.648630201816558838e-02,-1.921991445124149323e-02
5.328000000000000000e+03,1.010000038146972656e+01,2.599999904632568359e+00,1.147117867361657773e-08,2.399065479607997986e-08,2.394989967346191406e+00,-1.647572033107280731e-02,-1.922042295336723328e-02
5.329000000000000000e+03,1.019999980926513672e+01,2.599999904632568359e+00,1.158546059087939284e-08,2.447237434921589738e-08,2.394995212554931641e+00,-1.646676473319530487e-02,-1.922065205872058868e-02
5.330000000000000000e+03,1.030000019073486328e+01,2.599999904632568359e+00,1.169974339632062765e-08,2.495885809139508638e-08,2.395000457763671875e+00,-1.645925454795360565e-02,-1.922118663787841797e-02
5.331000000000000000e+03,1.039999961853027344e+01,2.599999904632568359e+00,1.181402620176186247e-08,2.545009536447651044e-08,2.395006179809570312e+00,-1.645303145051002502e-02,-1.922127045691013336e-02
5.332000000000000000e+03,1.050000000000000000e+01,2.599999904632568359e+00,1.192830900720309728e-08,2.594609682660120598e-08,2.395011663436889648e+00,-1.644794456660747528e-02,-1.922167837619781494e-02
5.333000000000000000e+03,1.060000038146972656e+01,2.599999904632568359e+00,1.204259358900117149e-08,2.644685714869865478e-08,2.395017385482788086e+00,-1.644386537373065948e-02,-1.922184415161609650e-02
5.334000000000000000e+03,1.069999980926513672e+01,2.599999904632568359e+00,1.215687639444240631e-08,2.695237277805517806e-08,2.395023107528686523e+00,-1.644066721200942993e-02,-1.922176964581012726e-02
5.335000000000000000e+03,1.080000019073486328e+01,2.599999904632568359e+00,1.227116008806206082e-08,2.746265082009813341e-08,2.395028591156005859e+00,-1.643824391067028046e-02,-1.922204159200191498e-02
5.336000000000000000e+03,1.089999961853027344e+01,2.599999904632568359e+00,1.238544378168171534e-08,2.797768416940016323e-08,2.395034074783325195e+00,-1.643649302423000336e-02,-1.922189444303512573e-02
5.337000000000000000e+03,1.100000000000000000e+01,2.599999904632568359e+00,1.249972836347978955e-08,2.849748170774546452e-08,2.395039319992065430e+00,-1.643532700836658478e-02,-1.922210305929183960e-02
5.338000000000000000e+03,1.110000038146972656e+01,2.599999904632568359e+00,1.261401383345628346e-08,2.902203632970667968e-08,2.395044326782226562e+00,-1.643466390669345856e-02,-1.922209560871124268e-02
5.339000000000000000e+03,1.119999980926513672e+01,2.599999904632568359e+00,1.272829752707593798e-08,2.955134625892696931e-08,2.395049333572387695e+00,-1.643443107604980469e-02,-1.922187209129333496e-02
5.340000000000000000e+03,1.130000019073486328e+01,2.599999904632568359e+00,1.284258299705243189e-08,3.008542037719053042e-08,2.395054101943969727e+00,-1.643456332385540009e-02,-1.922201737761497498e-02
5.341000000000000000e+03,1.139999961853027344e+01,2.599999904632568359e+00,1.295686757885050611e-08,3.062424980271316599e-08,2.395058631896972656e+00,-1.643500477075576782e-02,-1.922176405787467957e-02
5.342000000000000000e+03,1.150000000000000000e+01,2.599999904632568359e+00,1.307115304882700002e-08,3.116783986456539424e-08,2.395062923431396484e+00,-1.643570326268672943e-02,-1.922188140451908112e-02
5.343000000000000000e+03,1.160000038146972656e+01,2.599999904632568359e+00,1.318543940698191363e-08,3.171619411546089395e-08,2.395066976547241211e+00,-1.643661223351955414e-02,-1.922179758548736572e-02
5.344000000000000000e+03,1.169999980926513672e+01,2.599999904632568359e+00,1.329972487695840755e-08,3.226929834454494994e-08,2.395071029663085938e+00,-1.643769070506095886e-02,-1.922151446342468262e-02
5.345000000000000000e+03,1.180000019073486328e+01,2.599999904632568359e+00,1.341401123511332116e-08,3.282716676267227740e-08,2.395074605941772461e+00,-1.643890514969825745e-02,-1.922161132097244263e-02
5.346000000000000000e+03,1.189999961853027344e+01,2.599999904632568359e+00,1.352829670508981508e-08,3.338978871170183993e-08,2.395078182220458984e+00,-1.644022390246391296e-02,-1.922131888568401337e-02
5.347000000000000000e+03,1.200000000000000000e+01,2.599999904632568359e+00,1.364258306324472869e-08,3.395717840248835273e-08,2.395081281661987305e+00,-1.644161902368068695e-02,-1.922140829265117645e-02
5.348000000000000000e+03,1.210000038146972656e+01,2.599999904632568359e+00,1.375687030957806201e-08,3.452932517689077940e-08,2.395084381103515625e+00,-1.644306816160678864e-02,-1.922130212187767029e-02
5.349000000000000000e+03,1.219999980926513672e+01,2.599999904632568359e+00,1.387115666773297562e-08,3.510622548219544115e-08,2.395087242126464844e+00,-1.644454896450042725e-02,-1.922100596129894257e-02
5.350000000000000000e+03,1.230000019073486328e+01,2.599999904632568359e+00,1.398544391406630893e-08,3.568788997654337436e-08,2.395089864730834961e+00,-1.644604466855525970e-02,-1.922109350562095642e-02
5.351000000000000000e+03,1.239999961853027344e+01,2.599999904632568359e+00,1.409973027222122255e-08,3.627430800179354264e-08,2.395092487335205078e+00,-1.644754037261009216e-02,-1.922079734504222870e-02
5.352000000000000000e+03,1.250000000000000000e+01,2.599999904632568359e+00,1.421401751855455586e-08,3.686549376880066120e-08,2.395094633102416992e+00,-1.644902490079402924e-02,-1.922088675200939178e-02
5.353000000000000000e+03,1.260000038146972656e+01,2.599999904632568359e+00,1.432830476488788918e-08,3.746143306671001483e-08,2.395096778869628906e+00,-1.645048707723617554e-02,-1.922078616917133331e-02
5.354000000000000000e+03,1.269999980926513672e+01,2.599999904632568359e+00,1.444259201122122249e-08,3.806212944823528233e-08,2.395098924636840820e+00,-1.645191758871078491e-02,-1.922049745917320251e-02
5.355000000000000000e+03,1.280000019073486328e+01,2.599999904632568359e+00,1.455688014573297551e-08,3.866759001880382129e-08,2.395100593566894531e+00,-1.645330712199211121e-02,-1.922059431672096252e-02
5.356000000000000000e+03,1.289999961853027344e+01,2.599999904632568359e+00,1.467116650388788912e-08,3.927780412027459533e-08,2.395102262496948242e+00,-1.645465381443500519e-02,-1.922030933201313019e-02
5.357000000000000000e+03,1.300000000000000000e+01,2.599999904632568359e+00,1.478545463839964214e-08,3.989278241078864085e-08,2.395103931427001953e+00,-1.645595207810401917e-02,-1.922041364014148712e-02
5.358000000000000000e+03,1.310000038146972656e+01,2.599999904632568359e+00,1.489974277291139515e-08,4.051252133763227903e-08,2.395105361938476562e+00,-1.645719818770885468e-02,-1.922032795846462250e-02
5.359000000000000000e+03,1.319999980926513672e+01,2.599999904632568359e+00,1.501403090742314816e-08,4.113701379537815228e-08,2.395106554031372070e+00,-1.645838841795921326e-02,-1.922005414962768555e-02
5.360000000000000000e+03,1.330000019073486328e+01,2.599999904632568359e+00,1.512831815375648148e-08,4.176626688945361821e-08,2.395107746124267578e+00,-1.645952463150024414e-02,-1.922016963362693787e-02
5.361000000000000000e+03,1.339999961853027344e+01,2.599999904632568359e+00,1.524260540008981479e-08,4.240027706714499800e-08,2.395108938217163086e+00,-1.646060124039649963e-02,-1.921990327537059784e-02
5.362000000000000000e+03,1.350000000000000000e+01,2.599999904632568359e+00,1.535689442277998751e-08,4.303905143387964927e-08,2.395109891891479492e+00,-1.646162196993827820e-02,-1.922002620995044708e-02
5.363000000000000000e+03,1.360000038146972656e+01,2.599999904632568359e+00,1.547118344547016022e-08,4.368258643694389320e-08,2.395110845565795898e+00,-1.646258682012557983e-02,-1.921996101737022400e-02
5.364000000000000000e+03,1.369999980926513672e+01,2.599999904632568359e+00,1.558547069180349354e-08,4.433087141819669341e-08,2.395111560821533203e+00,-1.646349392831325531e-02,-1.921970956027507782e-02
5.365000000000000000e+03,1.380000019073486328e+01,2.599999904632568359e+00,1.569975793813682685e-08,4.498392414120644389e-08,2.395112276077270508e+00,-1.646434515714645386e-02,-1.921984925866127014e-02
5.366000000000000000e+03,1.389999961853027344e+01,2.599999904632568359e+00,1.581404696082699957e-08,4.564172684240475064e-08,2.395112991333007812e+00,-1.646514236927032471e-02,-1.921960897743701935e-02
5.367000000000000000e+03,1.400000000000000000e+01,2.599999904632568359e+00,1.592833420716033288e-08,4.630429728536000766e-08,2.395113706588745117e+00,-1.646588742733001709e-02,-1.921975985169410706e-02
5.368000000000000000e+03,1.410000038146972656e+01,2.599999904632568359e+00,1.604262322985050560e-08,4.697162481193117856e-08,2.395114183425903320e+00,-1.646658219397068024e-02,-1.921972818672657013e-02
5.369000000000000000e+03,1.419999980926513672e+01,2.599999904632568359e+00,1.615691225254067831e-08,4.764370586940458452e-08,2.395114660263061523e+00,-1.646722666919231415e-02,-1.921951398253440857e-02
5.370000000000000000e+03,1.430000019073486328e+01,2.599999904632568359e+00,1.627119949887401162e-08,4.832055466863494075e-08,2.395115137100219727e+00,-1.646782457828521729e-02,-1.921969465911388397e-02
5.371000000000000000e+03,1.439999961853027344e+01,2.599999904632568359e+00,1.638548852156418434e-08,4.900215344605385326e-08,2.395115375518798828e+00,-1.646837778389453888e-02,-1.921950466930866241e-02
5.372000000000000000e+03,1.450000000000000000e+01,2.599999904632568359e+00,1.649977754425435705e-08,4.968851996522971604e-08,2.395115852355957031e+00,-1.646888628602027893e-02,-1.921971514821052551e-02
5.373000000000000000e+03,1.460000038146972656e+01,2.599999904632568359e+00,1.661406656694452977e-08,5.037964356802149268e-08,2.395116090774536133e+00,-1.646935567259788513e-02,-1.921975240111351013e-02
5.374000000000000000e+03,1.469999980926513672e+01,2.599999904632568359e+00,1.672835381327786308e-08,5.107552070171550440e-08,2.395116329193115234e+00,-1.646978408098220825e-02,-1.921962015330791473e-02
5.375000000000000000e+03,1.480000019073486328e+01,2.599999904632568359e+00,1.684264283596803580e-08,5.177616202445278759e-08,2.395116567611694336e+00,-1.647017523646354675e-02,-1.921989955008029938e-02
5.376000000000000000e+03,1.489999961853027344e+01,2.599999904632568359e+00,1.695693008230136911e-08,5.248155687809230585e-08,2.395116806030273438e+00,-1.647053100168704987e-02,-1.921982690691947937e-02
5.377000000000000000e+03,1.500000000000000000e+01,2.599999904632568359e+00,1.707121910499154183e-08,5.319171947348877438e-08,2.395116806030273438e+00,-1.647085323929786682e-02,-1.922017894685268402e-02
5.378000000000000000e+03,1.510000038146972656e+01,2.599999904632568359e+00,1.718550812768171454e-08,5.390663915250115679e-08,2.395117044448852539e+00,-1.647114194929599762e-02,-1.922038570046424866e-02
5.379000000000000000e+03,1.519999980926513672e+01,2.599999904632568359e+00,1.729979537401504786e-08,5.462630880970209546e-08,2.395117044448852539e+00,-1.647140085697174072e-02,-1.922045461833477020e-02
5.380000000000000000e+03,1.530000019073486328e+01,2.599999904632568359e+00,1.741408439670522057e-08,5.535074976137366320e-08,2.395117044448852539e+00,-1.647162996232509613e-02,-1.922097429633140564e-02
5.381000000000000000e+03,1.539999961853027344e+01,2.599999904632568359e+00,1.752837341939539328e-08,5.607993713852010842e-08,2.395117044448852539e+00,-1.647183112800121307e-02,-1.922118850052356720e-02
5.382000000000000000e+03,1.550000000000000000e+01,2.599999904632568359e+00,1.764266244208556600e-08,5.681389581013718271e-08,2.395117044448852539e+00,-1.647200435400009155e-02,-1.922187954187393188e-02
5.383000000000000000e+03,1.560000038146972656e+01,2.599999904632568359e+00,1.775694968841889931e-08,5.755260801265649206e-08,2.395117044448852539e+00,-1.647214964032173157e-02,-1.922248676419258118e-02
5.384000000000000000e+03,1.569999980926513672e+01,2.599999904632568359e+00,1.787123871110907203e-08,5.829607729879171529e-08,2.395117044448852539e+00,-1.647227071225643158e-02,-1.922303065657615662e-02
5.385000000000000000e+03,1.580000019073486328e+01,2.599999904632568359e+00,1.798552773379924474e-08,5.904431077397020999e-08,2.395116806030273438e+00,-1.647236756980419159e-02,-1.922410726547241211e-02
5.386000000000000000e+03,1.589999961853027344e+01,2.599999904632568359e+00,1.809981498013257806e-08,5.979729422733726096e-08,2.395116806030273438e+00,-1.647243835031986237e-02,-1.922497712075710297e-02
5.387000000000000000e+03,1.600000000000000000e+01,2.599999904632568359e+00,1.821410400282275077e-08,6.055504542246126221e-08,2.395116567611694336e+00,-1.647248491644859314e-02,-1.922643370926380157e-02
5.388000000000000000e+03,1.610000038146972656e+01,2.599999904632568359e+00,1.832839302551292349e-08,6.131755725391485612e-08,2.395116329193115234e+00,-1.647250913083553314e-02,-1.922793686389923096e-02
5.389000000000000000e+03,1.620000076293945312e+01,2.599999904632568359e+00,1.844268204820309620e-08,6.208482261627068510e-08,2.395116090774536133e+00,-1.647250726819038391e-02,-1.922971196472644806e-02
5.390000000000000000e+03,1.629999923706054688e+01,2.599999904632568359e+00,1.855696929453642952e-08,6.285684150952874916e-08,2.395115613937377930e+00,-1.647248119115829468e-02,-1.923142001032829285e-02
5.391000000000000000e+03,1.639999961853027344e+01,2.599999904632568359e+00,1.867125831722660223e-08,6.363362814454376348e-08,2.395115137100219727e+00,-1.647243089973926544e-02,-1.923425868153572083e-02
5.392000000000000000e+03,1.650000000000000000e+01,2.599999904632568359e+00,1.878554556355993554e-08,6.441516831046101288e-08,2.395114660263061523e+00,-1.647235453128814697e-02,-1.923712715506553650e-02
5.393000000000000000e+03,1.660000038146972656e+01,2.599999904632568359e+00,1.889983458625010826e-08,6.520147621813521255e-08,2.395113945007324219e+00,-1.647225581109523773e-02,-1.924046687781810760e-02
5.394000000000000000e+03,1.670000076293945312e+01,2.599999904632568359e+00,1.901412360894028097e-08,6.599253765671164729e-08,2.395113468170166016e+00,-1.647213101387023926e-02,-1.924434117972850800e-02
5.395000000000000000e+03,1.679999923706054688e+01,2.599999904632568359e+00,1.912841085527361429e-08,6.678834552076295950e-08,2.395112514495849609e+00,-1.647198386490345001e-02,-1.924843527376651764e-02
5.396000000000000000e+03,1.689999961853027344e+01,2.599999904632568359e+00,1.924269987796378700e-08,6.758892823199857958e-08,2.395111560821533203e+00,-1.647181063890457153e-02,-1.925397478044033051e-02
5.397000000000000000e+03,1.700000000000000000e+01,2.599999904632568359e+00,1.935698712429712032e-08,6.839427157956379233e-08,2.395110607147216797e+00,-1.647161506116390228e-02,-1.925988681614398956e-02
5.398000000000000000e+03,1.710000038146972656e+01,2.599999904632568359e+00,1.947127614698729303e-08,6.920436845803124015e-08,2.395109176635742188e+00,-1.647139899432659149e-02,-1.926663517951965332e-02
5.399000000000000000e+03,1.720000076293945312e+01,2.599999904632568359e+00,1.958556516967746575e-08,7.001922597282828065e-08,2.395107746124267578e+00,-1.647116430103778839e-02,-1.927430741488933563e-02
5.400000000000000000e+03,1.729999923706054688e+01,2.599999904632568359e+00,1.969985063965395966e-08,7.083882280767284101e-08,2.395106315612792969e+00,-1.647091656923294067e-02,-1.928260363638401031e-02
5.401000000000000000e+03,1.739999961853027344e+01,2.599999904632568359e+00,1.981413966234413238e-08,7.166320159512906685e-08,2.395104408264160156e+00,-1.647065766155719757e-02,-1.929275877773761749e-02
5.402000000000000000e+03,1.750000000000000000e+01,2.599999904632568359e+00,1.992842690867746569e-08,7.249233391348752775e-08,2.395102500915527344e+00,-1.647039689123630524e-02,-1.930369809269905090e-02
5.403000000000000000e+03,1.760000038146972656e+01,2.599999904632568359e+00,2.004271593136763840e-08,7.332621976274822373e-08,2.395100116729736328e+00,-1.647014357149600983e-02,-1.931587420403957367e-02
5.404000000000000000e+03,1.770000076293945312e+01,2.599999904632568359e+00,2.015700317770097172e-08,7.416487335376586998e-08,2.395097732543945312e+00,-1.646990887820720673e-02,-1.932934112846851349e-02
5.405000000000000000e+03,1.779999923706054688e+01,2.599999904632568359e+00,2.027128864767746563e-08,7.500826626483103610e-08,2.395095109939575195e+00,-1.646970584988594055e-02,-1.934374123811721802e-02
5.406000000000000000e+03,1.789999961853027344e+01,2.599999904632568359e+00,2.038557767036763835e-08,7.585643402308051009e-08,2.395092248916625977e+00,-1.646955683827400208e-02,-1.936022937297821045e-02
5.407000000000000000e+03,1.800000000000000000e+01,2.599999904632568359e+00,2.049986491670097166e-08,7.670935531223221915e-08,2.395089149475097656e+00,-1.646948046982288361e-02,-1.937761157751083374e-02
5.408000000000000000e+03,1.810000038146972656e+01,2.599999904632568359e+00,2.061415216303430498e-08,7.756703723771352088e-08,2.395085811614990234e+00,-1.646950282156467438e-02,-1.939618587493896484e-02
5.409000000000000000e+03,1.820000076293945312e+01,2.599999904632568359e+00,2.072843940936763829e-08,7.842947979952441528e-08,2.395082235336303711e+00,-1.646965555846691132e-02,-1.941579952836036682e-02
5.410000000000000000e+03,1.829999923706054688e+01,2.599999904632568359e+00,2.084272487934413221e-08,7.929666878681018716e-08,2.395078659057617188e+00,-1.646997220814228058e-02,-1.943584159016609192e-02
5.411000000000000000e+03,1.839999961853027344e+01,2.599999904632568359e+00,2.095701034932062612e-08,8.016862551585290930e-08,2.395075082778930664e+00,-1.647049002349376678e-02,-1.945715583860874176e-02
5.412000000000000000e+03,1.850000000000000000e+01,2.599999904632568359e+00,2.107129759565395943e-08,8.104534288122522412e-08,2.395071506500244141e+00,-1.647124625742435455e-02,-1.947818137705326080e-02
5.413000000000000000e+03,1.860000038146972656e+01,2.599999904632568359e+00,2.118558484198729275e-08,8.192682088292713161e-08,2.395068168640136719e+00,-1.647228747606277466e-02,-1.949878409504890442e-02
5.414000000000000000e+03,1.870000076293945312e+01,2.599999904632568359e+00,2.129987031196378666e-08,8.281305241553127416e-08,2.395064830780029297e+00,-1.647364906966686249e-02,-1.951833255589008331e-02
5.415000000000000000e+03,1.879999923706054688e+01,2.599999904632568359e+00,2.141415578194028058e-08,8.370403037361029419e-08,2.395061731338500977e+00,-1.647537015378475189e-02,-1.953569427132606506e-02
5.416000000000000000e+03,1.889999961853027344e+01,2.599999904632568359e+00,2.152844125191677449e-08,8.459979028430097969e-08,2.395059347152709961e+00,-1.647748425602912903e-02,-1.955116726458072662e-02
5.417000000000000000e+03,1.900000000000000000e+01,2.599999904632568359e+00,2.164272849825010780e-08,8.550030372589390026e-08,2.395057201385498047e+00,-1.648001000285148621e-02,-1.956263929605484009e-02
5.418000000000000000e+03,1.910000038146972656e+01,2.599999904632568359e+00,2.175701396822660172e-08,8.640557780381641351e-08,2.395055770874023438e+00,-1.648295670747756958e-02,-1.956946216523647308e-02
5.419000000000000000e+03,1.920000076293945312e+01,2.599999904632568359e+00,2.187129943820309563e-08,8.731561962349587702e-08,2.395055055618286133e+00,-1.648631691932678223e-02,-1.957055740058422089e-02
5.420000000000000000e+03,1.929999923706054688e+01,2.599999904632568359e+00,2.198558490817958955e-08,8.823040076322286041e-08,2.395054817199707031e+00,-1.649006456136703491e-02,-1.956446282565593719e-02
5.421000000000000000e+03,1.939999961853027344e+01,2.599999904632568359e+00,2.209987037815608346e-08,8.914996385556150926e-08,2.395055294036865234e+00,-1.649415493011474609e-02,-1.955129764974117279e-02
5.422000000000000000e+03,1.950000000000000000e+01,2.599999904632568359e+00,2.221415762448941678e-08,9.007429468965710839e-08,2.395056486129760742e+00,-1.649851724505424500e-02,-1.952897757291793823e-02
5.423000000000000000e+03,1.960000038146972656e+01,2.599999904632568359e+00,2.232844309446591069e-08,9.100338616008230019e-08,2.395058393478393555e+00,-1.650307141244411469e-02,-1.949711702764034271e-02
5.424000000000000000e+03,1.970000076293945312e+01,2.599999904632568359e+00,2.244273034079924400e-08,9.193725247769179987e-08,2.395060300827026367e+00,-1.650771498680114746e-02,-1.945515908300876617e-02
5.425000000000000000e+03,1.979999923706054688e+01,2.599999904632568359e+00,2.255701581077573792e-08,9.287585811534881941e-08,2.395062685012817383e+00,-1.651234365999698639e-02,-1.940241642296314240e-02
5.426000000000000000e+03,1.989999961853027344e+01,2.599999904632568359e+00,2.267130128075223183e-08,9.381925991647221963e-08,2.395064830780029297e+00,-1.651683263480663300e-02,-1.934003271162509918e-02
5.427000000000000000e+03,2.000000000000000000e+01,2.599999904632568359e+00,2.278558852708556515e-08,9.476742235392521252e-08,2.395066738128662109e+00,-1.652116142213344574e-02,-1.926715113222599030e-02
5.428000000000000000e+03,0.000000000000000000e+00,2.700000047683715820e+00,9.630575036306452400e-38,2.095127296601663857e-38,2.162364482879638672e+00,6.487093567848205566e-01,-1.808082759380340576e-01
5.429000000000000000e+03,1.000000014901161194e-01,2.700000047683715820e+00,9.370246245588020884e-11,-2.238578766800003450e-11,2.149191379547119141e+00,6.047992706298828125e-01,-2.136420905590057373e-01
5.430000000000000000e+03,2.000000029802322388e-01,2.700000047683715820e+00,1.886000938755572065e-10,-3.751105676075283668e-11,2.163537740707397461e+00,5.689579844474792480e-01,-1.884915828704833984e-01
5.431000000000000000e+03,3.000000119209289551e-01,2.700000047683715820e+00,2.846916036247648663e-10,-4.557587987563671561e-11,2.177857637405395508e+00,5.331204533576965332e-01,-1.655991971492767334e-01
5.432000000000000000e+03,4.000000059604644775e-01,2.700000047683715820e+00,3.819685678863038447e-10,-4.677456685864278541e-11,2.192058086395263672e+00,4.974732100963592529e-01,-1.448943763971328735e-01
5.433000000000000000e+03,5.000000000000000000e-01,2.700000047683715820e+00,4.804149855708317318e-10,-4.129418335052648104e-11,2.206038236618041992e+00,4.622104763984680176e-01,-1.262875795364379883e-01
5.434000000000000000e+03,6.000000238418579102e-01,2.700000047683715820e+00,5.800071534167727805e-10,-2.931329484701095112e-11,2.219693660736083984e+00,4.275277853012084961e-01,-1.096735745668411255e-01
5.435000000000000000e+03,6.999999880790710449e-01,2.700000047683715820e+00,6.807135410902276362e-10,-1.100100826406658072e-11,2.232920169830322266e+00,3.936160802841186523e-01,-9.493468701839447021e-02
5.436000000000000000e+03,8.000000119209289551e-01,2.700000047683715820e+00,7.824955128299393436e-10,1.348379394250365237e-11,2.245617389678955078e+00,3.606556355953216553e-01,-8.194442093372344971e-02
5.437000000000000000e+03,8.999999761581420898e-01,2.700000047683715820e+00,8.853073829584445775e-10,4.399285102874017639e-11,2.257693290710449219e+00,3.288112282752990723e-01,-7.057060301303863525e-02
5.438000000000000000e+03,1.000000000000000000e+00,2.700000047683715820e+00,9.890978036608544244e-10,8.038887611139244882e-11,2.269066095352172852e+00,2.982276976108551025e-01,-6.067861616611480713e-02
5.439000000000000000e+03,1.100000023841857910e+00,2.700000047683715820e+00,1.093810153562913001e-09,1.225454737685538475e-10,2.279668092727661133e+00,2.690271735191345215e-01,-5.213402584195137024e-02
5.440000000000000000e+03,1.200000047683715820e+00,2.700000047683715820e+00,1.199384258576685625e-09,1.703470420277852782e-10,2.289446830749511719e+00,2.413073033094406128e-01,-4.480506107211112976e-02
5.441000000000000000e+03,1.299999952316284180e+00,2.700000047683715820e+00,1.305756724967466198e-09,2.236884288908669305e-10,2.298365831375122070e+00,2.151404917240142822e-01,-3.856448456645011902e-02
5.442000000000000000e+03,1.399999976158142090e+00,2.700000047683715820e+00,1.412863048777524000e-09,2.824747380447689693e-10,2.306404590606689453e+00,1.905743479728698730e-01,-3.329129144549369812e-02
5.443000000000000000e+03,1.500000000000000000e+00,2.700000047683715820e+00,1.520637726848406146e-09,3.466204823165952575e-10,2.313558340072631836e+00,1.676330566406250000e-01,-2.887163124978542328e-02
5.444000000000000000e+03,1.600000023841857910e+00,2.700000047683715820e+00,1.629015811133172065e-09,4.160491950955247376e-10,2.319835901260375977e+00,1.463191509246826172e-01,-2.519985660910606384e-02
5.445000000000000000e+03,1.700000047683715820e+00,2.700000047683715820e+00,1.737933685852510735e-09,4.906928197101478872e-10,2.325259208679199219e+00,1.266158968210220337e-01,-2.217886596918106079e-02
5.446000000000000000e+03,1.799999952316284180e+00,2.700000047683715820e+00,1.847329511583950534e-09,5.704908767611982512e-10,2.329860448837280273e+00,1.084899380803108215e-01,-1.972028426826000214e-02
5.447000000000000000e+03,1.899999976158142090e+00,2.700000047683715820e+00,1.957144446507186331e-09,6.553902420769475157e-10,2.333681106567382812e+00,9.189393371343612671e-02,-1.774456538259983063e-02
5.448000000000000000e+03,2.000000000000000000e+00,2.700000047683715820e+00,2.067322535381777016e-09,7.453440087346052678e-10,2.336768627166748047e+00,7.676933705806732178e-02,-1.618048734962940216e-02
5.449000000000000000e+03,2.099999904632568359e+00,2.700000047683715820e+00,2.177811042614052894e-09,8.403109874599579143e-10,2.339175939559936523e+00,6.304889172315597534e-02,-1.496501546353101730e-02
5.450000000000000000e+03,2.200000047683715820e+00,2.700000047683715820e+00,2.288561562480140310e-09,9.402555400939149877e-10,2.340958356857299805e+00,5.065890029072761536e-02,-1.404281426221132278e-02
5.451000000000000000e+03,2.299999952316284180e+00,2.700000047683715820e+00,2.399529019925239481e-09,1.045146191813728365e-09,2.342173337936401367e+00,3.952153399586677551e-02,-1.336533483117818832e-02
5.452000000000000000e+03,2.400000095367431641e+00,2.700000047683715820e+00,2.510672558742044203e-09,1.154956019711050885e-09,2.342878341674804688e+00,2.955639362335205078e-02,-1.289084739983081818e-02
5.453000000000000000e+03,2.500000000000000000e+00,2.700000047683715820e+00,2.621954653392322143e-09,1.269661265013155571e-09,2.343129634857177734e+00,2.068233303725719452e-02,-1.258306670933961868e-02
5.454000000000000000e+03,2.599999904632568359e+00,2.700000047683715820e+00,2.733341997185334549e-09,1.389241721660994244e-09,2.342982053756713867e+00,1.281855534762144089e-02,-1.241127308458089828e-02
5.455000000000000000e+03,2.700000047683715820e+00,2.700000047683715820e+00,2.844805058188626390e-09,1.513680181197685215e-09,2.342487812042236328e+00,5.885769147425889969e-03,-1.234923768788576126e-02
5.456000000000000000e+03,2.799999952316284180e+00,2.700000047683715820e+00,2.956316969005001738e-09,1.642960989478581268e-09,2.341696500778198242e+00,-1.929329591803252697e-04,-1.237465627491474152e-02
5.457000000000000000e+03,2.900000095367431641e+00,2.700000047683715820e+00,3.067855303129363165e-09,1.777071823028109065e-09,2.340653896331787109e+00,-5.491559393703937531e-03,-1.246912684291601181e-02
5.458000000000000000e+03,3.000000000000000000e+00,2.700000047683715820e+00,3.179399410413452642e-09,1.916000913482207579e-09,2.339402437210083008e+00,-1.008061692118644714e-02,-1.261693332344293594e-02
5.459000000000000000e+03,3.099999904632568359e+00,2.700000047683715820e+00,3.290932193422690943e-09,2.059738823945167496e-09,2.337981224060058594e+00,-1.402689516544342041e-02,-1.280535105615854263e-02
5.460000000000000000e+03,3.200000047683715820e+00,2.700000047683715820e+00,3.402438997213153016e-09,2.208277782855816440e-09,2.336425304412841797e+00,-1.739320717751979828e-02,-1.302377227693796158e-02
5.461000000000000000e+03,3.299999952316284180e+00,2.700000047683715820e+00,3.513907387286963058e-09,2.361610462742191885e-09,2.334766387939453125e+00,-2.023828029632568359e-02,-1.326336432248353958e-02
5.462000000000000000e+03,3.400000095367431641e+00,2.700000047683715820e+00,3.625327593681504368e-09,2.519730868399960855e-09,2.333032608032226562e+00,-2.261678688228130341e-02,-1.351725775748491287e-02
5.463000000000000000e+03,3.500000000000000000e+00,2.700000047683715820e+00,3.736690512567975020e-09,2.682633670758605149e-09,2.331249237060546875e+00,-2.457933127880096436e-02,-1.377955917268991470e-02
5.464000000000000000e+03,3.599999904632568359e+00,2.700000047683715820e+00,3.847989926697437113e-09,2.850314873015236117e-09,2.329437971115112305e+00,-2.617259509861469269e-02,-1.404585130512714386e-02
5.465000000000000000e+03,3.700000047683715820e+00,2.700000047683715820e+00,3.959220951088582297e-09,3.022770700411570033e-09,2.327617883682250977e+00,-2.743943966925144196e-02,-1.431251689791679382e-02
5.466000000000000000e+03,3.799999952316284180e+00,2.700000047683715820e+00,4.070379588938521920e-09,3.199997378189323172e-09,2.325805425643920898e+00,-2.841907180845737457e-02,-1.457657385617494583e-02
5.467000000000000000e+03,3.900000095367431641e+00,2.700000047683715820e+00,4.181463175711996882e-09,3.381993129991656133e-09,2.324014186859130859e+00,-2.914724126458168030e-02,-1.483602169901132584e-02
5.468000000000000000e+03,4.000000000000000000e+00,2.700000047683715820e+00,4.292470379141377634e-09,3.568754625149495041e-09,2.322256088256835938e+00,-2.965641021728515625e-02,-1.508899964392185211e-02
5.469000000000000000e+03,4.099999904632568359e+00,2.700000047683715820e+00,4.403400755137454325e-09,3.760280087306000496e-09,2.320540904998779297e+00,-2.997596748173236847e-02,-1.533440873026847839e-02
5.470000000000000000e+03,4.199999809265136719e+00,2.700000047683715820e+00,4.514253415521807256e-09,3.956568406238147873e-09,2.318876266479492188e+00,-3.013243339955806732e-02,-1.557130925357341766e-02
5.471000000000000000e+03,4.300000190734863281e+00,2.700000047683715820e+00,4.625031024829695525e-09,4.157618693767517470e-09,2.317268610000610352e+00,-3.014964237809181213e-02,-1.579917035996913910e-02
5.472000000000000000e+03,4.400000095367431641e+00,2.700000047683715820e+00,4.735732694882699434e-09,4.363428285358850189e-09,2.315722703933715820e+00,-3.004896827042102814e-02,-1.601732708513736725e-02
5.473000000000000000e+03,4.500000000000000000e+00,2.700000047683715820e+00,4.846360646126868232e-09,4.573996292833726329e-09,2.314241886138916016e+00,-2.984948456287384033e-02,-1.622582972049713135e-02
5.474000000000000000e+03,4.599999904632568359e+00,2.700000047683715820e+00,4.956917987186670871e-09,4.789322716192145890e-09,2.312829256057739258e+00,-2.956817112863063812e-02,-1.642451807856559753e-02
5.475000000000000000e+03,4.699999809265136719e+00,2.700000047683715820e+00,5.067406050329736900e-09,5.009406223166479322e-09,2.311485767364501953e+00,-2.922007814049720764e-02,-1.661341823637485504e-02
5.476000000000000000e+03,4.800000190734863281e+00,2.700000047683715820e+00,5.177827944180535269e-09,5.234247701935146324e-09,2.310212135314941406e+00,-2.881849557161331177e-02,-1.679273694753646851e-02
5.477000000000000000e+03,4.900000095367431641e+00,2.700000047683715820e+00,5.288186333274325079e-09,5.463844487962887797e-09,2.309008598327636719e+00,-2.837511897087097168e-02,-1.696238294243812561e-02
5.478000000000000000e+03,5.000000000000000000e+00,2.700000047683715820e+00,5.398483438057155581e-09,5.698197469428123441e-09,2.307874441146850586e+00,-2.790017612278461456e-02,-1.712285540997982025e-02
5.479000000000000000e+03,5.099999904632568359e+00,2.700000047683715820e+00,5.508722811242705575e-09,5.937305758152433555e-09,2.306808710098266602e+00,-2.740257792174816132e-02,-1.727433316409587860e-02
5.480000000000000000e+03,5.199999809265136719e+00,2.700000047683715820e+00,5.618907117366234161e-09,6.181169354135818139e-09,2.305809736251831055e+00,-2.689005061984062195e-02,-1.741711050271987915e-02
5.481000000000000000e+03,5.300000190734863281e+00,2.700000047683715820e+00,5.729040353230629989e-09,6.429789589645906744e-09,2.304875373840332031e+00,-2.636924013495445251e-02,-1.755158230662345886e-02
5.482000000000000000e+03,5.400000095367431641e+00,2.700000047683715820e+00,5.839123851103522611e-09,6.683163800147440270e-09,2.304004192352294922e+00,-2.584584057331085205e-02,-1.767779886722564697e-02
5.483000000000000000e+03,5.500000000000000000e+00,2.700000047683715820e+00,5.949161607787800676e-09,6.941293317908048266e-09,2.303193092346191406e+00,-2.532467246055603027e-02,-1.779636181890964508e-02
5.484000000000000000e+03,5.599999904632568359e+00,2.700000047683715820e+00,6.059155843729513435e-09,7.204177698838520882e-09,2.302440166473388672e+00,-2.480979450047016144e-02,-1.790751330554485321e-02
5.485000000000000000e+03,5.699999809265136719e+00,2.700000047683715820e+00,6.169109667553129839e-09,7.471816942938858119e-09,2.301742553710937500e+00,-2.430457808077335358e-02,-1.801158674061298370e-02
5.486000000000000000e+03,5.800000190734863281e+00,2.700000047683715820e+00,6.279026631972328687e-09,7.744213270655109227e-09,2.301097631454467773e+00,-2.381178736686706543e-02,-1.810899376869201660e-02
5.487000000000000000e+03,5.900000095367431641e+00,2.700000047683715820e+00,6.388907625165529680e-09,8.021363129273595405e-09,2.300502538681030273e+00,-2.333365753293037415e-02,-1.819979213178157806e-02
5.488000000000000000e+03,6.000000000000000000e+00,2.700000047683715820e+00,6.498755755757201769e-09,8.303267406972736353e-09,2.299954891204833984e+00,-2.287194691598415375e-02,-1.828456856310367584e-02
5.489000000000000000e+03,6.099999904632568359e+00,2.700000047683715820e+00,6.608573688282604053e-09,8.589927880109371472e-09,2.299451828002929688e+00,-2.242800220847129822e-02,-1.836354471743106842e-02
5.490000000000000000e+03,6.199999809265136719e+00,2.700000047683715820e+00,6.718363643187785783e-09,8.881343660505081061e-09,2.298990488052368164e+00,-2.200281061232089996e-02,-1.843702606856822968e-02
5.491000000000000000e+03,6.300000190734863281e+00,2.700000047683715820e+00,6.828128285008006060e-09,9.177516524516704521e-09,2.298568725585937500e+00,-2.159704267978668213e-02,-1.850539445877075195e-02
5.492000000000000000e+03,6.400000095367431641e+00,2.700000047683715820e+00,6.937868501921684583e-09,9.478442919430563052e-09,2.298183679580688477e+00,-2.121111191809177399e-02,-1.856866292655467987e-02
5.493000000000000000e+03,6.500000000000000000e+00,2.700000047683715820e+00,7.047586958464080453e-09,9.784125509781915753e-09,2.297832965850830078e+00,-2.084518969058990479e-02,-1.862738095223903656e-02
5.494000000000000000e+03,6.599999904632568359e+00,2.700000047683715820e+00,7.157284986902823221e-09,1.009456429557076262e-08,2.297514200210571289e+00,-2.049925364553928375e-02,-1.868172734975814819e-02
5.495000000000000000e+03,6.699999809265136719e+00,2.700000047683715820e+00,7.266964807683962135e-09,1.040975838861868397e-08,2.297225236892700195e+00,-2.017311565577983856e-02,-1.873195730149745941e-02
5.496000000000000000e+03,6.800000190734863281e+00,2.700000047683715820e+00,7.376628197164336598e-09,1.072971134163935858e-08,2.296963691711425781e+00,-1.986645162105560303e-02,-1.877840608358383179e-02
5.497000000000000000e+03,6.900000095367431641e+00,2.700000047683715820e+00,7.486275599433156458e-09,1.105441871374068796e-08,2.296727657318115234e+00,-1.957882381975650787e-02,-1.882104203104972839e-02
5.498000000000000000e+03,7.000000000000000000e+00,2.700000047683715820e+00,7.595909679025680816e-09,1.138388228127951152e-08,2.296515226364135742e+00,-1.930969767272472382e-02,-1.886036060750484467e-02
5.499000000000000000e+03,7.099999904632568359e+00,2.700000047683715820e+00,7.705530435941909673e-09,1.171810204425582924e-08,2.296324491500854492e+00,-1.905846968293190002e-02,-1.889649406075477600e-02
5.500000000000000000e+03,7.199999809265136719e+00,2.700000047683715820e+00,7.815139646538682427e-09,1.205707977902648054e-08,2.296153545379638672e+00,-1.882447861135005951e-02,-1.892964914441108704e-02
5.501000000000000000e+03,7.300000190734863281e+00,2.700000047683715820e+00,7.924739087172838481e-09,1.240081459741304570e-08,2.296000957489013672e+00,-1.860701479017734528e-02,-1.896011084318161011e-02
5.502000000000000000e+03,7.400000095367431641e+00,2.700000047683715820e+00,8.034328757844377833e-09,1.274930561123710504e-08,2.295865058898925781e+00,-1.840534806251525879e-02,-1.898779906332492828e-02
5.503000000000000000e+03,7.500000000000000000e+00,2.700000047683715820e+00,8.143910434910139884e-09,1.310255370867707825e-08,2.295744419097900391e+00,-1.821872405707836151e-02,-1.901316270232200623e-02
5.504000000000000000e+03,7.599999904632568359e+00,2.700000047683715820e+00,8.253484118370124634e-09,1.346055977791138503e-08,2.295637607574462891e+00,-1.804637722671031952e-02,-1.903628371655941010e-02
5.505000000000000000e+03,7.699999809265136719e+00,2.700000047683715820e+00,8.363051584581171483e-09,1.382332204258318598e-08,2.295543670654296875e+00,-1.788754388689994812e-02,-1.905732415616512299e-02
5.506000000000000000e+03,7.800000190734863281e+00,2.700000047683715820e+00,8.472612833543280431e-09,1.419084405540615990e-08,2.295460939407348633e+00,-1.774146035313606262e-02,-1.907652243971824646e-02
5.507000000000000000e+03,7.900000095367431641e+00,2.700000047683715820e+00,8.582168753434871178e-09,1.456312226366662799e-08,2.295388936996459961e+00,-1.760738156735897064e-02,-1.909375563263893127e-02
5.508000000000000000e+03,8.000000000000000000e+00,2.700000047683715820e+00,8.691719344255943724e-09,1.494015755554300995e-08,2.295326232910156250e+00,-1.748457178473472595e-02,-1.910942792892456055e-02
5.509000000000000000e+03,8.100000381469726562e+00,2.700000047683715820e+00,8.801266382363337470e-09,1.532195348374898458e-08,2.295271873474121094e+00,-1.737231202423572540e-02,-1.912367157638072968e-02
5.510000000000000000e+03,8.199999809265136719e+00,2.700000047683715820e+00,8.910808979578632716e-09,1.570850294285719428e-08,2.295225143432617188e+00,-1.726991496980190277e-02,-1.913623884320259094e-02
5.511000000000000000e+03,8.300000190734863281e+00,2.700000047683715820e+00,9.020349800437088561e-09,1.609981303829499666e-08,2.295185327529907227e+00,-1.717670634388923645e-02,-1.914788223803043365e-02
5.512000000000000000e+03,8.399999618530273438e+00,2.700000047683715820e+00,9.129886180403445906e-09,1.649588021734871290e-08,2.295151472091674805e+00,-1.709204912185668945e-02,-1.915797777473926544e-02
5.513000000000000000e+03,8.500000000000000000e+00,2.700000047683715820e+00,9.239420784012963850e-09,1.689670625637518242e-08,2.295123338699340820e+00,-1.701532490551471710e-02,-1.916735433042049408e-02
5.514000000000000000e+03,8.600000381469726562e+00,2.700000047683715820e+00,9.348953611265642394e-09,1.730229293173124461e-08,2.295099735260009766e+00,-1.694594882428646088e-02,-1.917555555701255798e-02
5.515000000000000000e+03,8.699999809265136719e+00,2.700000047683715820e+00,9.458483773983061837e-09,1.771263313798954186e-08,2.295080661773681641e+00,-1.688336580991744995e-02,-1.918266899883747101e-02
5.516000000000000000e+03,8.800000190734863281e+00,2.700000047683715820e+00,9.568013936700481281e-09,1.812773575693427119e-08,2.295065164566040039e+00,-1.682704687118530273e-02,-1.918932050466537476e-02
5.517000000000000000e+03,8.899999618530273438e+00,2.700000047683715820e+00,9.677541434882641624e-09,1.854759190678123559e-08,2.295053005218505859e+00,-1.677649468183517456e-02,-1.919485628604888916e-02
5.518000000000000000e+03,9.000000000000000000e+00,2.700000047683715820e+00,9.787068044886382268e-09,1.897221224567147146e-08,2.295043945312500000e+00,-1.673123799264431000e-02,-1.920007541775703430e-02
5.519000000000000000e+03,9.100000381469726562e+00,2.700000047683715820e+00,9.896594654890122911e-09,1.940158966817762121e-08,2.295037269592285156e+00,-1.669083721935749054e-02,-1.920449174940586090e-02
5.520000000000000000e+03,9.199999809265136719e+00,2.700000047683715820e+00,1.000611948853702415e-08,1.983572239794284542e-08,2.295032739639282227e+00,-1.665487699210643768e-02,-1.920816674828529358e-02
5.521000000000000000e+03,9.300000190734863281e+00,2.700000047683715820e+00,1.011564432218392540e-08,2.027461754039450170e-08,2.295030355453491211e+00,-1.662297174334526062e-02,-1.921170204877853394e-02
5.522000000000000000e+03,9.399999618530273438e+00,2.700000047683715820e+00,1.022516737947398724e-08,2.071826799010523246e-08,2.295029401779174805e+00,-1.659476198256015778e-02,-1.921441778540611267e-02
5.523000000000000000e+03,9.500000000000000000e+00,2.700000047683715820e+00,1.033469221312088848e-08,2.116668085250239528e-08,2.295029878616333008e+00,-1.656991057097911835e-02,-1.921709068119525909e-02
5.524000000000000000e+03,9.600000381469726562e+00,2.700000047683715820e+00,1.044421615858937002e-08,2.161985257487231138e-08,2.295031547546386719e+00,-1.654810458421707153e-02,-1.921921595931053162e-02
5.525000000000000000e+03,9.699999809265136719e+00,2.700000047683715820e+00,1.055373921587943187e-08,2.207777782814446255e-08,2.295033931732177734e+00,-1.652905531227588654e-02,-1.922083087265491486e-02
5.526000000000000000e+03,9.800000190734863281e+00,2.700000047683715820e+00,1.066326316134791341e-08,2.254046727045988519e-08,2.295037508010864258e+00,-1.651249639689922333e-02,-1.922251842916011810e-02
5.527000000000000000e+03,9.899999618530273438e+00,2.700000047683715820e+00,1.077278533045955555e-08,2.300791024367754289e-08,2.295041322708129883e+00,-1.649817824363708496e-02,-1.922358386218547821e-02
5.528000000000000000e+03,1.000000000000000000e+01,2.700000047683715820e+00,1.088230927592803710e-08,2.348011740593847207e-08,2.295045852661132812e+00,-1.648587547242641449e-02,-1.922478526830673218e-02
5.529000000000000000e+03,1.010000038146972656e+01,2.700000047683715820e+00,1.099183322139651864e-08,2.395708342817215453e-08,2.295050859451293945e+00,-1.647537946701049805e-02,-1.922560483217239380e-02
5.530000000000000000e+03,1.019999980926513672e+01,2.700000047683715820e+00,1.110135627868658048e-08,2.443880298130807205e-08,2.295056104660034180e+00,-1.646649651229381561e-02,-1.922605000436306000e-02
5.531000000000000000e+03,1.030000019073486328e+01,2.700000047683715820e+00,1.121088022415506202e-08,2.492528672348726104e-08,2.295061588287353516e+00,-1.645905338227748871e-02,-1.922672614455223083e-02
5.532000000000000000e+03,1.039999961853027344e+01,2.700000047683715820e+00,1.132040328144512387e-08,2.541652577292552451e-08,2.295067071914672852e+00,-1.645288616418838501e-02,-1.922688074409961700e-02
5.533000000000000000e+03,1.050000000000000000e+01,2.700000047683715820e+00,1.142992811509202511e-08,2.591252723505022004e-08,2.295072555541992188e+00,-1.644785143435001373e-02,-1.922730170190334320e-02
5.534000000000000000e+03,1.060000038146972656e+01,2.700000047683715820e+00,1.153945294873892635e-08,2.641328755714766885e-08,2.295078277587890625e+00,-1.644381508231163025e-02,-1.922743022441864014e-02
5.535000000000000000e+03,1.069999980926513672e+01,2.700000047683715820e+00,1.164897689420740790e-08,2.691880318650419213e-08,2.295083761215209961e+00,-1.644065417349338531e-02,-1.922727935016155243e-02
5.536000000000000000e+03,1.080000019073486328e+01,2.700000047683715820e+00,1.175850261603272884e-08,2.742908122854714748e-08,2.295089244842529297e+00,-1.643826253712177277e-02,-1.922743953764438629e-02
5.537000000000000000e+03,1.089999961853027344e+01,2.700000047683715820e+00,1.186802656150121038e-08,2.794411457784917729e-08,2.295094728469848633e+00,-1.643654145300388336e-02,-1.922715269029140472e-02
5.538000000000000000e+03,1.100000000000000000e+01,2.700000047683715820e+00,1.197755228332653132e-08,2.846391033983763919e-08,2.295099973678588867e+00,-1.643539778888225555e-02,-1.922719925642013550e-02
5.539000000000000000e+03,1.110000038146972656e+01,2.700000047683715820e+00,1.208707800515185227e-08,2.898846673815569375e-08,2.295104980468750000e+00,-1.643475331366062164e-02,-1.922701112926006317e-02
5.540000000000000000e+03,1.119999980926513672e+01,2.700000047683715820e+00,1.219660372697717321e-08,2.951777666737598338e-08,2.295109748840332031e+00,-1.643453724682331085e-02,-1.922659575939178467e-02
5.541000000000000000e+03,1.130000019073486328e+01,2.700000047683715820e+00,1.230612944880249415e-08,3.005185078563954448e-08,2.295114517211914062e+00,-1.643468253314495087e-02,-1.922653801739215851e-02
5.542000000000000000e+03,1.139999961853027344e+01,2.700000047683715820e+00,1.241565517062781510e-08,3.059068021116218006e-08,2.295119047164916992e+00,-1.643513515591621399e-02,-1.922607421875000000e-02
5.543000000000000000e+03,1.150000000000000000e+01,2.700000047683715820e+00,1.252518178063155574e-08,3.113427027301440830e-08,2.295123100280761719e+00,-1.643584109842777252e-02,-1.922597922384738922e-02
5.544000000000000000e+03,1.160000038146972656e+01,2.700000047683715820e+00,1.263470927881371608e-08,3.168262097119622922e-08,2.295127153396606445e+00,-1.643675565719604492e-02,-1.922568120062351227e-02
5.545000000000000000e+03,1.169999980926513672e+01,2.700000047683715820e+00,1.274423500063903703e-08,3.223572875299396401e-08,2.295130968093872070e+00,-1.643783971667289734e-02,-1.922518573701381683e-02
5.546000000000000000e+03,1.180000019073486328e+01,2.700000047683715820e+00,1.285376249882119737e-08,3.279359717112129147e-08,2.295134782791137695e+00,-1.643905788660049438e-02,-1.922507025301456451e-02
5.547000000000000000e+03,1.189999961853027344e+01,2.700000047683715820e+00,1.296328910882493801e-08,3.335621912015085400e-08,2.295138120651245117e+00,-1.644037850201129913e-02,-1.922456920146942139e-02
5.548000000000000000e+03,1.200000000000000000e+01,2.700000047683715820e+00,1.307281660700709836e-08,3.392360881093736680e-08,2.295141220092773438e+00,-1.644177362322807312e-02,-1.922445558011531830e-02
5.549000000000000000e+03,1.210000038146972656e+01,2.700000047683715820e+00,1.318234499336767840e-08,3.449575558533979347e-08,2.295144319534301758e+00,-1.644322089850902557e-02,-1.922415383160114288e-02
5.550000000000000000e+03,1.219999980926513672e+01,2.700000047683715820e+00,1.329187160337141904e-08,3.507265589064445521e-08,2.295147180557250977e+00,-1.644470170140266418e-02,-1.922366581857204437e-02
5.551000000000000000e+03,1.230000019073486328e+01,2.700000047683715820e+00,1.340139998973199909e-08,3.565432038499238843e-08,2.295149803161621094e+00,-1.644619554281234741e-02,-1.922357082366943359e-02
5.552000000000000000e+03,1.239999961853027344e+01,2.700000047683715820e+00,1.351092748791415943e-08,3.624073841024255671e-08,2.295152187347412109e+00,-1.644769124686717987e-02,-1.922309957444667816e-02
5.553000000000000000e+03,1.250000000000000000e+01,2.700000047683715820e+00,1.362045587427473947e-08,3.683192062453599647e-08,2.295154333114624023e+00,-1.644917204976081848e-02,-1.922302134335041046e-02
5.554000000000000000e+03,1.260000038146972656e+01,2.700000047683715820e+00,1.372998426063531952e-08,3.742786347515902889e-08,2.295156478881835938e+00,-1.645063050091266632e-02,-1.922276243567466736e-02
5.555000000000000000e+03,1.269999980926513672e+01,2.700000047683715820e+00,1.383951175881747986e-08,3.802855985668429639e-08,2.295158386230468750e+00,-1.645205728709697723e-02,-1.922232098877429962e-02
5.556000000000000000e+03,1.280000019073486328e+01,2.700000047683715820e+00,1.394904103335647960e-08,3.863402042725283536e-08,2.295160293579101562e+00,-1.645344495773315430e-02,-1.922227442264556885e-02
5.557000000000000000e+03,1.289999961853027344e+01,2.700000047683715820e+00,1.405856853153863995e-08,3.924423452872360940e-08,2.295161962509155273e+00,-1.645478792488574982e-02,-1.922185532748699188e-02
5.558000000000000000e+03,1.300000000000000000e+01,2.700000047683715820e+00,1.416809780607763969e-08,3.985921281923765491e-08,2.295163393020629883e+00,-1.645608246326446533e-02,-1.922183297574520111e-02
5.559000000000000000e+03,1.310000038146972656e+01,2.700000047683715820e+00,1.427762708061663943e-08,4.047894819336761429e-08,2.295164823532104492e+00,-1.645732298493385315e-02,-1.922162808477878571e-02
5.560000000000000000e+03,1.319999980926513672e+01,2.700000047683715820e+00,1.438715457879879978e-08,4.110344065111348755e-08,2.295166015625000000e+00,-1.645851135253906250e-02,-1.922124251723289490e-02
5.561000000000000000e+03,1.330000019073486328e+01,2.700000047683715820e+00,1.449668385333779952e-08,4.173269729790263227e-08,2.295167207717895508e+00,-1.645964197814464569e-02,-1.922125369310379028e-02
5.562000000000000000e+03,1.339999961853027344e+01,2.700000047683715820e+00,1.460621223969837956e-08,4.236670392288033327e-08,2.295168399810791016e+00,-1.646071486175060272e-02,-1.922089047729969025e-02
5.563000000000000000e+03,1.350000000000000000e+01,2.700000047683715820e+00,1.471574151423737931e-08,4.300547828961498453e-08,2.295169353485107422e+00,-1.646173000335693359e-02,-1.922092214226722717e-02
5.564000000000000000e+03,1.360000038146972656e+01,2.700000047683715820e+00,1.482527078877637905e-08,4.364901329267922847e-08,2.295170307159423828e+00,-1.646268926560878754e-02,-1.922077499330043793e-02
5.565000000000000000e+03,1.369999980926513672e+01,2.700000047683715820e+00,1.493480006331537879e-08,4.429729827393202868e-08,2.295171022415161133e+00,-1.646358892321586609e-02,-1.922044530510902405e-02
5.566000000000000000e+03,1.380000019073486328e+01,2.700000047683715820e+00,1.504432844967595884e-08,4.495035099694177916e-08,2.295171737670898438e+00,-1.646443456411361694e-02,-1.922051049768924713e-02
5.567000000000000000e+03,1.389999961853027344e+01,2.700000047683715820e+00,1.515385683603653888e-08,4.560815369814008591e-08,2.295172452926635742e+00,-1.646522618830204010e-02,-1.922020316123962402e-02
5.568000000000000000e+03,1.400000000000000000e+01,2.700000047683715820e+00,1.526338699875395832e-08,4.627072414109534293e-08,2.295172929763793945e+00,-1.646596193313598633e-02,-1.922029443085193634e-02
5.569000000000000000e+03,1.410000038146972656e+01,2.700000047683715820e+00,1.537291716147137777e-08,4.693805522038019262e-08,2.295173406600952148e+00,-1.646664738655090332e-02,-1.922020502388477325e-02
5.570000000000000000e+03,1.419999980926513672e+01,2.700000047683715820e+00,1.548244554783195781e-08,4.761013627785359859e-08,2.295173883438110352e+00,-1.646728068590164185e-02,-1.921993680298328400e-02
5.571000000000000000e+03,1.430000019073486328e+01,2.700000047683715820e+00,1.559197571054937725e-08,4.828698152437027602e-08,2.295174360275268555e+00,-1.646786555647850037e-02,-1.922006905078887939e-02
5.572000000000000000e+03,1.439999961853027344e+01,2.700000047683715820e+00,1.570150409690995730e-08,4.896858030178918852e-08,2.295174598693847656e+00,-1.646840199828147888e-02,-1.921983435750007629e-02
5.573000000000000000e+03,1.450000000000000000e+01,2.700000047683715820e+00,1.581103425962737674e-08,4.965494682096505130e-08,2.295175075531005859e+00,-1.646889187395572662e-02,-1.922000385820865631e-02
5.574000000000000000e+03,1.460000038146972656e+01,2.700000047683715820e+00,1.592056264598795678e-08,5.034607042375682795e-08,2.295175313949584961e+00,-1.646933890879154205e-02,-1.922000199556350708e-02
5.575000000000000000e+03,1.469999980926513672e+01,2.700000047683715820e+00,1.603009280870537623e-08,5.104194755745083967e-08,2.295175552368164062e+00,-1.646974124014377594e-02,-1.921983435750007629e-02
5.576000000000000000e+03,1.480000019073486328e+01,2.700000047683715820e+00,1.613962119506595627e-08,5.174259243290180166e-08,2.295175790786743164e+00,-1.647009886801242828e-02,-1.922008022665977478e-02
5.577000000000000000e+03,1.489999961853027344e+01,2.700000047683715820e+00,1.624915135778337572e-08,5.244798373382764112e-08,2.295175790786743164e+00,-1.647041738033294678e-02,-1.921997591853141785e-02
5.578000000000000000e+03,1.500000000000000000e+01,2.700000047683715820e+00,1.635867974414395576e-08,5.315814632922410965e-08,2.295176029205322266e+00,-1.647069305181503296e-02,-1.922029443085193634e-02
5.579000000000000000e+03,1.510000038146972656e+01,2.700000047683715820e+00,1.646820990686137520e-08,5.387306600823649205e-08,2.295176029205322266e+00,-1.647092774510383606e-02,-1.922047138214111328e-02
5.580000000000000000e+03,1.519999980926513672e+01,2.700000047683715820e+00,1.657773829322195525e-08,5.459273921815110953e-08,2.295176267623901367e+00,-1.647112146019935608e-02,-1.922051049768924713e-02
5.581000000000000000e+03,1.530000019073486328e+01,2.700000047683715820e+00,1.668726845593937469e-08,5.531717661710899847e-08,2.295176267623901367e+00,-1.647127233445644379e-02,-1.922100037336349487e-02
5.582000000000000000e+03,1.539999961853027344e+01,2.700000047683715820e+00,1.679679684229995473e-08,5.604636399425544369e-08,2.295176029205322266e+00,-1.647138223052024841e-02,-1.922118291258811951e-02
5.583000000000000000e+03,1.550000000000000000e+01,2.700000047683715820e+00,1.690632700501737418e-08,5.678032266587251797e-08,2.295176029205322266e+00,-1.647144742310047150e-02,-1.922184042632579803e-02
5.584000000000000000e+03,1.560000038146972656e+01,2.700000047683715820e+00,1.701585716773479362e-08,5.751903842110550613e-08,2.295176029205322266e+00,-1.647146791219711304e-02,-1.922241412103176117e-02
5.585000000000000000e+03,1.569999980926513672e+01,2.700000047683715820e+00,1.712538555409537366e-08,5.826250415452705056e-08,2.295175790786743164e+00,-1.647144183516502380e-02,-1.922292076051235199e-02
5.586000000000000000e+03,1.580000019073486328e+01,2.700000047683715820e+00,1.723491571681279311e-08,5.901073762970554526e-08,2.295175552368164062e+00,-1.647136360406875610e-02,-1.922395825386047363e-02
5.587000000000000000e+03,1.589999961853027344e+01,2.700000047683715820e+00,1.734444410317337315e-08,5.976372108307259623e-08,2.295175313949584961e+00,-1.647123321890830994e-02,-1.922478340566158295e-02
5.588000000000000000e+03,1.600000000000000000e+01,2.700000047683715820e+00,1.745397426589079259e-08,6.052147227819659747e-08,2.295174837112426758e+00,-1.647104695439338684e-02,-1.922619156539440155e-02
5.589000000000000000e+03,1.610000038146972656e+01,2.700000047683715820e+00,1.756350442860821204e-08,6.128398410965019139e-08,2.295174360275268555e+00,-1.647079922258853912e-02,-1.922763697803020477e-02
5.590000000000000000e+03,1.620000076293945312e+01,2.700000047683715820e+00,1.767303459132563148e-08,6.205124947200602037e-08,2.295173883438110352e+00,-1.647048629820346832e-02,-1.922935061156749725e-02
5.591000000000000000e+03,1.629999923706054688e+01,2.700000047683715820e+00,1.778256120132937212e-08,6.282326836526408442e-08,2.295173168182373047e+00,-1.647010259330272675e-02,-1.923098787665367126e-02
5.592000000000000000e+03,1.639999961853027344e+01,2.700000047683715820e+00,1.789209136404679157e-08,6.360005500027909875e-08,2.295172452926635742e+00,-1.646964251995086670e-02,-1.923374645411968231e-02
5.593000000000000000e+03,1.650000000000000000e+01,2.700000047683715820e+00,1.800161975040737161e-08,6.438160227162370575e-08,2.295171499252319336e+00,-1.646910049021244049e-02,-1.923652552068233490e-02
5.594000000000000000e+03,1.660000038146972656e+01,2.700000047683715820e+00,1.811114991312479106e-08,6.516790307387054781e-08,2.295170545578002930e+00,-1.646847277879714966e-02,-1.923976466059684753e-02
5.595000000000000000e+03,1.670000076293945312e+01,2.700000047683715820e+00,1.822068007584221050e-08,6.595896451244698255e-08,2.295169115066528320e+00,-1.646775193512439728e-02,-1.924352534115314484e-02
5.596000000000000000e+03,1.679999923706054688e+01,2.700000047683715820e+00,1.833020668584595114e-08,6.675477237649829476e-08,2.295167684555053711e+00,-1.646693237125873566e-02,-1.924749277532100677e-02
5.597000000000000000e+03,1.689999961853027344e+01,2.700000047683715820e+00,1.843973684856337059e-08,6.755535508773391484e-08,2.295166015625000000e+00,-1.646601222455501556e-02,-1.925289072096347809e-02
5.598000000000000000e+03,1.700000000000000000e+01,2.700000047683715820e+00,1.854926523492395063e-08,6.836069843529912760e-08,2.295164108276367188e+00,-1.646498590707778931e-02,-1.925864629447460175e-02
5.599000000000000000e+03,1.710000038146972656e+01,2.700000047683715820e+00,1.865879362128453067e-08,6.917079531376657542e-08,2.295161962509155273e+00,-1.646385341882705688e-02,-1.926522329449653625e-02
5.600000000000000000e+03,1.720000076293945312e+01,2.700000047683715820e+00,1.876832378400195012e-08,6.998565282856361591e-08,2.295159339904785156e+00,-1.646261848509311676e-02,-1.927270740270614624e-02
5.601000000000000000e+03,1.729999923706054688e+01,2.700000047683715820e+00,1.887785039400569076e-08,7.080524966340817627e-08,2.295156478881835938e+00,-1.646128483116626740e-02,-1.928080245852470398e-02
5.602000000000000000e+03,1.739999961853027344e+01,2.700000047683715820e+00,1.898737878036627080e-08,7.162962845086440211e-08,2.295153141021728516e+00,-1.645986363291740417e-02,-1.929074339568614960e-02
5.603000000000000000e+03,1.750000000000000000e+01,2.700000047683715820e+00,1.909690716672685085e-08,7.245876076922286302e-08,2.295149564743041992e+00,-1.645836979150772095e-02,-1.930145733058452606e-02
5.604000000000000000e+03,1.760000038146972656e+01,2.700000047683715820e+00,1.920643555308743089e-08,7.329265372391091660e-08,2.295145273208618164e+00,-1.645682938396930695e-02,-1.931339874863624573e-02
5.605000000000000000e+03,1.770000076293945312e+01,2.700000047683715820e+00,1.931596216309117153e-08,7.413130020950120525e-08,2.295140743255615234e+00,-1.645527593791484833e-02,-1.932662911713123322e-02
5.606000000000000000e+03,1.779999923706054688e+01,2.700000047683715820e+00,1.942548877309491218e-08,7.497469312056637136e-08,2.295135974884033203e+00,-1.645375229418277740e-02,-1.934079453349113464e-02
5.607000000000000000e+03,1.789999961853027344e+01,2.700000047683715820e+00,1.953501538309865282e-08,7.582286087881584535e-08,2.295130491256713867e+00,-1.645231433212757111e-02,-1.935706101357936859e-02
5.608000000000000000e+03,1.800000000000000000e+01,2.700000047683715820e+00,1.964454199310239346e-08,7.667578927339491202e-08,2.295124530792236328e+00,-1.645103469491004944e-02,-1.937424205243587494e-02
5.609000000000000000e+03,1.810000038146972656e+01,2.700000047683715820e+00,1.975407037946297351e-08,7.753347119887621375e-08,2.295118331909179688e+00,-1.645000092685222626e-02,-1.939264498651027679e-02
5.610000000000000000e+03,1.820000076293945312e+01,2.700000047683715820e+00,1.986359521310987475e-08,7.839591376068710815e-08,2.295111656188964844e+00,-1.644931547343730927e-02,-1.941213384270668030e-02
5.611000000000000000e+03,1.829999923706054688e+01,2.700000047683715820e+00,1.997312004675677599e-08,7.926309564254552242e-08,2.295104980468750000e+00,-1.644909754395484924e-02,-1.943210884928703308e-02
5.612000000000000000e+03,1.839999961853027344e+01,2.700000047683715820e+00,2.008264665676051663e-08,8.013505237158824457e-08,2.295097827911376953e+00,-1.644948497414588928e-02,-1.945342868566513062e-02
5.613000000000000000e+03,1.850000000000000000e+01,2.700000047683715820e+00,2.019217149040741788e-08,8.101176973696055938e-08,2.295090675354003906e+00,-1.645062305033206940e-02,-1.947454735636711121e-02
5.614000000000000000e+03,1.860000038146972656e+01,2.700000047683715820e+00,2.030169632405431912e-08,8.189324773866246687e-08,2.295083761215209961e+00,-1.645266823470592499e-02,-1.949534006416797638e-02
5.615000000000000000e+03,1.870000076293945312e+01,2.700000047683715820e+00,2.041122115770122036e-08,8.277948637669396703e-08,2.295077085494995117e+00,-1.645578257739543915e-02,-1.951518654823303223e-02
5.616000000000000000e+03,1.879999923706054688e+01,2.700000047683715820e+00,2.052074421499128221e-08,8.367046433477298706e-08,2.295070648193359375e+00,-1.646011509001255035e-02,-1.953295804560184479e-02
5.617000000000000000e+03,1.889999961853027344e+01,2.700000047683715820e+00,2.063026904863818345e-08,8.456621714003631496e-08,2.295065164566040039e+00,-1.646579615771770477e-02,-1.954894699156284332e-02
5.618000000000000000e+03,1.900000000000000000e+01,2.700000047683715820e+00,2.073979210592824529e-08,8.546673058162923553e-08,2.295060396194458008e+00,-1.647293195128440857e-02,-1.956103183329105377e-02
5.619000000000000000e+03,1.910000038146972656e+01,2.700000047683715820e+00,2.084931693957514653e-08,8.637200465955174877e-08,2.295056581497192383e+00,-1.648157835006713867e-02,-1.956854201853275299e-02
5.620000000000000000e+03,1.920000076293945312e+01,2.700000047683715820e+00,2.095884177322204778e-08,8.728204647923121229e-08,2.295053720474243164e+00,-1.649173162877559662e-02,-1.957036927342414856e-02
5.621000000000000000e+03,1.929999923706054688e+01,2.700000047683715820e+00,2.106836305415527022e-08,8.819682761895819567e-08,2.295052289962768555e+00,-1.650332473218441010e-02,-1.956500858068466187e-02
5.622000000000000000e+03,1.939999961853027344e+01,2.700000047683715820e+00,2.117788788780217146e-08,8.911639071129684453e-08,2.295052051544189453e+00,-1.651620864868164062e-02,-1.955253258347511292e-02
5.623000000000000000e+03,1.950000000000000000e+01,2.700000047683715820e+00,2.128741272144907271e-08,9.004072154539244366e-08,2.295052766799926758e+00,-1.653015986084938049e-02,-1.953080669045448303e-02
5.624000000000000000e+03,1.960000038146972656e+01,2.700000047683715820e+00,2.139693755509597395e-08,9.096981301581763546e-08,2.295054435729980469e+00,-1.654487848281860352e-02,-1.949939876794815063e-02
5.625000000000000000e+03,1.970000076293945312e+01,2.700000047683715820e+00,2.150646416509971459e-08,9.190367222799977753e-08,2.295056819915771484e+00,-1.656000502407550812e-02,-1.945770718157291412e-02
5.626000000000000000e+03,1.979999923706054688e+01,2.700000047683715820e+00,2.161598722238977643e-08,9.284228497108415468e-08,2.295059680938720703e+00,-1.657513342797756195e-02,-1.940501295030117035e-02
5.627000000000000000e+03,1.989999961853027344e+01,2.700000047683715820e+00,2.172551383239351708e-08,9.378567966678019729e-08,2.295062541961669922e+00,-1.658986322581768036e-02,-1.934244297444820404e-02
5.628000000000000000e+03,2.000000000000000000e+01,2.700000047683715820e+00,2.183504044239725772e-08,9.473384920966054779e-08,2.295065164566040039e+00,-1.660379581153392792e-02,-1.926910504698753357e-02
5.629000000000000000e+03,0.000000000000000000e+00,2.799999952316284180e+00,9.096104107470166731e-38,1.889622953172729324e-38,2.068811655044555664e+00,6.206434965133666992e-01,-1.951746791601181030e-01
5.630000000000000000e+03,1.000000014901161194e-01,2.799999952316284180e+00,8.964850389814316145e-11,-2.416448464936937768e-11,2.056497573852539062e+00,5.795965790748596191e-01,-2.279182374477386475e-01
5.631000000000000000e+03,2.000000029802322388e-01,2.799999952316284180e+00,1.804137395033933444e-10,-4.107981316225917112e-11,2.069875478744506836e+00,5.460187196731567383e-01,-2.027444690465927124e-01
5.632000000000000000e+03,3.000000119209289551e-01,2.799999952316284180e+00,2.722965464219129217e-10,-5.093783728149503531e-11,2.083250999450683594e+00,5.123741030693054199e-01,-1.797365546226501465e-01
5.633000000000000000e+03,4.000000059604644775e-01,2.799999952316284180e+00,3.652914914997751339e-10,-5.392372312562621062e-11,2.096543073654174805e+00,4.788304865360260010e-01,-1.588163524866104126e-01
5.634000000000000000e+03,5.000000000000000000e-01,2.799999952316284180e+00,4.593862790169822574e-10,-5.021475249500362281e-11,2.109660625457763672e+00,4.455660879611968994e-01,-1.398902386426925659e-01
5.635000000000000000e+03,6.000000238418579102e-01,2.799999952316284180e+00,5.545614523150277364e-10,-3.997938438637937963e-11,2.122507810592651367e+00,4.127641916275024414e-01,-1.228528022766113281e-01
5.636000000000000000e+03,6.999999880790710449e-01,2.799999952316284180e+00,6.507901439967156421e-10,-2.337665477858408281e-11,2.134985208511352539e+00,3.806067407131195068e-01,-1.075902730226516724e-01
5.637000000000000000e+03,8.000000119209289551e-01,2.799999952316284180e+00,7.480385755265217540e-10,-5.557480474080445099e-13,2.146996736526489258e+00,3.492683172225952148e-01,-9.398382157087326050e-02
5.638000000000000000e+03,8.999999761581420898e-01,2.799999952316284180e+00,8.462660572305935602e-10,2.834408922847142520e-11,2.158451557159423828e+00,3.189111351966857910e-01,-8.191220462322235107e-02
5.639000000000000000e+03,1.000000000000000000e+00,2.799999952316284180e+00,9.454262928088041917e-10,6.319363088369556181e-11,2.169268846511840820e+00,2.896801531314849854e-01,-7.125432044267654419e-02
5.640000000000000000e+03,1.100000023841857910e+00,2.799999952316284180e+00,1.045467823423962272e-09,1.038733959957127695e-10,2.179380178451538086e+00,2.617000639438629150e-01,-6.189093738794326782e-02
5.641000000000000000e+03,1.200000047683715820e+00,2.799999952316284180e+00,1.146334915880231620e-09,1.502734325864452103e-10,2.188730955123901367e+00,2.350730001926422119e-01,-5.370635166764259338e-02
5.642000000000000000e+03,1.299999952316284180e+00,2.799999952316284180e+00,1.247969061424214487e-09,2.022928630163178809e-10,2.197282075881958008e+00,2.098774462938308716e-01,-4.658941924571990967e-02
5.643000000000000000e+03,1.399999976158142090e+00,2.799999952316284180e+00,1.350309974945673730e-09,2.598397885744674340e-10,2.205009937286376953e+00,1.861682534217834473e-01,-4.043456912040710449e-02
5.644000000000000000e+03,1.500000000000000000e+00,2.799999952316284180e+00,1.453296372133650038e-09,3.228303180335956313e-10,2.211905956268310547e+00,1.639777123928070068e-01,-3.514214232563972473e-02
5.645000000000000000e+03,1.600000023841857910e+00,2.799999952316284180e+00,1.556866857654881642e-09,3.911884982610303041e-10,2.217975139617919922e+00,1.433168947696685791e-01,-3.061906993389129639e-02
5.646000000000000000e+03,1.700000047683715820e+00,2.799999952316284180e+00,1.660961257421433857e-09,4.648455786959715397e-10,2.223234891891479492e+00,1.241778805851936340e-01,-2.677892893552780151e-02
5.647000000000000000e+03,1.799999952316284180e+00,2.799999952316284180e+00,1.765520729613001549e-09,5.437395533824940230e-10,2.227713584899902344e+00,1.065360531210899353e-01,-2.354204095900058746e-02
5.648000000000000000e+03,1.899999976158142090e+00,2.799999952316284180e+00,1.870489541033748537e-09,6.278149666805177276e-10,2.231447935104370117e+00,9.035257995128631592e-02,-2.083555795252323151e-02
5.649000000000000000e+03,2.000000000000000000e+00,2.799999952316284180e+00,1.975813734844678038e-09,7.170217752872076744e-10,2.234481573104858398e+00,7.557708770036697388e-02,-1.859306916594505310e-02
5.650000000000000000e+03,2.099999904632568359e+00,2.799999952316284180e+00,2.081443017942774532e-09,8.113153482369739322e-10,2.236862897872924805e+00,6.214997544884681702e-02,-1.675461232662200928e-02
5.651000000000000000e+03,2.200000047683715820e+00,2.799999952316284180e+00,2.187330983005608687e-09,9.106561615901398454e-10,2.238643646240234375e+00,5.000465735793113708e-02,-1.526638213545084000e-02
5.652000000000000000e+03,2.299999952316284180e+00,2.799999952316284180e+00,2.293433443156800422e-09,1.015008410654161253e-09,2.239877700805664062e+00,3.906980529427528381e-02,-1.408004295080900192e-02
5.653000000000000000e+03,2.400000095367431641e+00,2.799999952316284180e+00,2.399711762635092782e-09,1.124341064695499881e-09,2.240618944168090820e+00,2.927090041339397430e-02,-1.315298024564981461e-02
5.654000000000000000e+03,2.500000000000000000e+00,2.799999952316284180e+00,2.506128859991463287e-09,1.238625868538179020e-09,2.240920782089233398e+00,2.053206786513328552e-02,-1.244714111089706421e-02
5.655000000000000000e+03,2.599999904632568359e+00,2.799999952316284180e+00,2.612652538758197807e-09,1.357838175231051991e-09,2.240835428237915039e+00,1.277717761695384979e-02,-1.192936114966869354e-02
5.656000000000000000e+03,2.700000047683715820e+00,2.799999952316284180e+00,2.719254377225865937e-09,1.481956779514348455e-09,2.240412235260009766e+00,5.931049119681119919e-03,-1.157046016305685043e-02
5.657000000000000000e+03,2.799999952316284180e+00,2.799999952316284180e+00,2.825907730041876675e-09,1.610961586351322694e-09,2.239698886871337891e+00,-7.964467658894136548e-05,-1.134484540671110153e-02
5.658000000000000000e+03,2.900000095367431641e+00,2.799999952316284180e+00,2.932590614790342443e-09,1.744836275463512720e-09,2.238739252090454102e+00,-5.325810518115758896e-03,-1.123061403632164001e-02
5.659000000000000000e+03,3.000000000000000000e+00,2.799999952316284180e+00,3.039282603367610136e-09,1.883565303728573781e-09,2.237574338912963867e+00,-9.875290095806121826e-03,-1.120845414698123932e-02
5.660000000000000000e+03,3.099999904632568359e+00,2.799999952316284180e+00,3.145967264472915303e-09,2.027135792559420224e-09,2.236241579055786133e+00,-1.379259303212165833e-02,-1.126203779131174088e-02
5.661000000000000000e+03,3.200000047683715820e+00,2.799999952316284180e+00,3.252630165206937818e-09,2.175536417681200874e-09,2.234774827957153320e+00,-1.713860221207141876e-02,-1.137721724808216095e-02
5.662000000000000000e+03,3.299999952316284180e+00,2.799999952316284180e+00,3.359258426982592027e-09,2.328756520952879328e-09,2.233205080032348633e+00,-1.997041329741477966e-02,-1.154174190014600754e-02
5.663000000000000000e+03,3.400000095367431641e+00,2.799999952316284180e+00,3.465842501881866156e-09,2.486787664679468435e-09,2.231559514999389648e+00,-2.234132774174213409e-02,-1.174548454582691193e-02
5.664000000000000000e+03,3.500000000000000000e+00,2.799999952316284180e+00,3.572373508120563201e-09,2.649621411165981044e-09,2.229862928390502930e+00,-2.430080994963645935e-02,-1.197947654873132706e-02
5.665000000000000000e+03,3.599999904632568359e+00,2.799999952316284180e+00,3.678845006405140339e-09,2.817251321118874330e-09,2.228136301040649414e+00,-2.589458972215652466e-02,-1.223643496632575989e-02
5.666000000000000000e+03,3.700000047683715820e+00,2.799999952316284180e+00,3.785252111754289217e-09,2.989671399333815316e-09,2.226398229598999023e+00,-2.716474980115890503e-02,-1.251009292900562286e-02
5.667000000000000000e+03,3.799999952316284180e+00,2.799999952316284180e+00,3.891590605320516261e-09,3.166876094695680877e-09,2.224665164947509766e+00,-2.814985439181327820e-02,-1.279503572732210159e-02
5.668000000000000000e+03,3.900000095367431641e+00,2.799999952316284180e+00,3.997858044613167294e-09,3.348861188356977436e-09,2.222950458526611328e+00,-2.888512238860130310e-02,-1.308705005794763565e-02
5.669000000000000000e+03,4.000000000000000000e+00,2.799999952316284180e+00,4.104052653275402918e-09,3.535622239425606494e-09,2.221265554428100586e+00,-2.940259128808975220e-02,-1.338226906955242157e-02
5.670000000000000000e+03,4.099999904632568359e+00,2.799999952316284180e+00,4.210173543128803431e-09,3.727155473143284325e-09,2.219620227813720703e+00,-2.973130531609058380e-02,-1.367779821157455444e-02
5.671000000000000000e+03,4.199999809265136719e+00,2.799999952316284180e+00,4.316220714173368833e-09,3.923458891108566604e-09,2.218022346496582031e+00,-2.989750541746616364e-02,-1.397108938544988632e-02
5.672000000000000000e+03,4.300000190734863281e+00,2.799999952316284180e+00,4.422195054587518825e-09,4.124530050830799155e-09,2.216478109359741211e+00,-2.992480807006359100e-02,-1.426018867641687393e-02
5.673000000000000000e+03,4.400000095367431641e+00,2.799999952316284180e+00,4.528097008460463258e-09,4.330364511417883477e-09,2.214992523193359375e+00,-2.983440831303596497e-02,-1.454317476600408554e-02
5.674000000000000000e+03,4.500000000000000000e+00,2.799999952316284180e+00,4.633928352149041530e-09,4.540962272869819571e-09,2.213568687438964844e+00,-2.964524365961551666e-02,-1.481900177896022797e-02
5.675000000000000000e+03,4.599999904632568359e+00,2.799999952316284180e+00,4.739691306099302892e-09,4.756320670651348337e-09,2.212209701538085938e+00,-2.937418222427368164e-02,-1.508655026555061340e-02
5.676000000000000000e+03,4.699999809265136719e+00,2.799999952316284180e+00,4.845387646668086745e-09,4.976439260673259923e-09,2.210916757583618164e+00,-2.903619594871997833e-02,-1.534502953290939331e-02
5.677000000000000000e+03,4.800000190734863281e+00,2.799999952316284180e+00,4.951020926569071889e-09,5.201316710667924781e-09,2.209691047668457031e+00,-2.864450961351394653e-02,-1.559393666684627533e-02
5.678000000000000000e+03,4.900000095367431641e+00,2.799999952316284180e+00,5.056592033980678025e-09,5.430950800189293659e-09,2.208532333374023438e+00,-2.821077033877372742e-02,-1.583258621394634247e-02
5.679000000000000000e+03,5.000000000000000000e+00,2.799999952316284180e+00,5.162104521616583952e-09,5.665341085148156708e-09,2.207440376281738281e+00,-2.774517051875591278e-02,-1.606097631156444550e-02
5.680000000000000000e+03,5.099999904632568359e+00,2.799999952316284180e+00,5.267561054012048771e-09,5.904487565544513927e-09,2.206413745880126953e+00,-2.725660055875778198e-02,-1.627887226641178131e-02
5.681000000000000000e+03,5.199999809265136719e+00,2.799999952316284180e+00,5.372964739791541433e-09,6.148388909110735767e-09,2.205451488494873047e+00,-2.675276622176170349e-02,-1.648623310029506683e-02
5.682000000000000000e+03,5.300000190734863281e+00,2.799999952316284180e+00,5.478318687579530888e-09,6.397046448114451778e-09,2.204551696777343750e+00,-2.624030411243438721e-02,-1.668318547308444977e-02
5.683000000000000000e+03,5.400000095367431641e+00,2.799999952316284180e+00,5.583624673732856536e-09,6.650457518020402858e-09,2.203712463378906250e+00,-2.572490088641643524e-02,-1.686957105994224548e-02
5.684000000000000000e+03,5.500000000000000000e+00,2.799999952316284180e+00,5.688886250965197178e-09,6.908622562917798859e-09,2.202931404113769531e+00,-2.521138079464435577e-02,-1.704583130776882172e-02
5.685000000000000000e+03,5.599999904632568359e+00,2.799999952316284180e+00,5.794106083811811914e-09,7.171541138717429931e-09,2.202206134796142578e+00,-2.470379695296287537e-02,-1.721210405230522156e-02
5.686000000000000000e+03,5.699999809265136719e+00,2.799999952316284180e+00,5.899286392718749994e-09,7.439214133597715772e-09,2.201534271240234375e+00,-2.420553192496299744e-02,-1.736864633858203888e-02
5.687000000000000000e+03,5.800000190734863281e+00,2.799999952316284180e+00,6.004431174488900069e-09,7.711641991647866234e-09,2.200913190841674805e+00,-2.371934987604618073e-02,-1.751583814620971680e-02
5.688000000000000000e+03,5.900000095367431641e+00,2.799999952316284180e+00,6.109541317300681840e-09,7.988822048332622217e-09,2.200340509414672852e+00,-2.324749715626239777e-02,-1.765372604131698608e-02
5.689000000000000000e+03,6.000000000000000000e+00,2.799999952316284180e+00,6.214619929778564256e-09,8.270756524098032969e-09,2.199813127517700195e+00,-2.279173582792282104e-02,-1.778291165828704834e-02
5.690000000000000000e+03,6.099999904632568359e+00,2.799999952316284180e+00,6.319669232368596568e-09,8.557444530765678792e-09,2.199328899383544922e+00,-2.235342562198638916e-02,-1.790365949273109436e-02
5.691000000000000000e+03,6.199999809265136719e+00,2.799999952316284180e+00,6.424691001427618176e-09,8.848886068335559685e-09,2.198885202407836914e+00,-2.193356119096279144e-02,-1.801632530987262726e-02
5.692000000000000000e+03,6.300000190734863281e+00,2.799999952316284180e+00,6.529688789669307880e-09,9.145083801342934748e-09,2.198479413986206055e+00,-2.153282426297664642e-02,-1.812135800719261169e-02
5.693000000000000000e+03,6.400000095367431641e+00,2.799999952316284180e+00,6.634662597093665681e-09,9.446034177074125182e-09,2.198109149932861328e+00,-2.115163579583168030e-02,-1.821885444223880768e-02
5.694000000000000000e+03,6.500000000000000000e+00,2.799999952316284180e+00,6.739615088235950680e-09,9.751738971885970386e-09,2.197772026062011719e+00,-2.079018019139766693e-02,-1.830944605171680450e-02
5.695000000000000000e+03,6.599999904632568359e+00,2.799999952316284180e+00,6.844548483542212125e-09,1.006219818577847036e-08,2.197465658187866211e+00,-2.044844441115856171e-02,-1.839340850710868835e-02
5.696000000000000000e+03,6.699999809265136719e+00,2.799999952316284180e+00,6.949464115280079568e-09,1.037741181875162511e-08,2.197188138961791992e+00,-2.012625150382518768e-02,-1.847109943628311157e-02
5.697000000000000000e+03,6.800000190734863281e+00,2.799999952316284180e+00,7.054363759806392409e-09,1.069738253534069372e-08,2.196936845779418945e+00,-1.982328668236732483e-02,-1.854295283555984497e-02
5.698000000000000000e+03,6.900000095367431641e+00,2.799999952316284180e+00,7.159247861210360497e-09,1.102210678283199741e-08,2.196710348129272461e+00,-1.953912526369094849e-02,-1.860903948545455933e-02
5.699000000000000000e+03,7.000000000000000000e+00,2.799999952316284180e+00,7.264118639938033084e-09,1.135158544940395586e-08,2.196506500244140625e+00,-1.927324011921882629e-02,-1.866996102035045624e-02
5.700000000000000000e+03,7.099999904632568359e+00,2.799999952316284180e+00,7.368976984167829869e-09,1.168582031141340849e-08,2.196323633193969727e+00,-1.902504079043865204e-02,-1.872595213353633881e-02
5.701000000000000000e+03,7.199999809265136719e+00,2.799999952316284180e+00,7.473824226167380402e-09,1.202481048068193559e-08,2.196159839630126953e+00,-1.879387162625789642e-02,-1.877732574939727783e-02
5.702000000000000000e+03,7.300000190734863281e+00,2.799999952316284180e+00,7.578662142293524084e-09,1.236855862174479626e-08,2.196013689041137695e+00,-1.857903972268104553e-02,-1.882446371018886566e-02
5.703000000000000000e+03,7.400000095367431641e+00,2.799999952316284180e+00,7.683491176635470765e-09,1.271706118188831169e-08,2.195883750915527344e+00,-1.837982051074504852e-02,-1.886738650500774384e-02
5.704000000000000000e+03,7.500000000000000000e+00,2.799999952316284180e+00,7.788311329193220445e-09,1.307031993746932130e-08,2.195768356323242188e+00,-1.819546706974506378e-02,-1.890663430094718933e-02
5.705000000000000000e+03,7.599999904632568359e+00,2.799999952316284180e+00,7.893124376323612523e-09,1.342833400030940538e-08,2.195666313171386719e+00,-1.802522875368595123e-02,-1.894238591194152832e-02
5.706000000000000000e+03,7.699999809265136719e+00,2.799999952316284180e+00,7.997930318026647001e-09,1.379110603494382303e-08,2.195576667785644531e+00,-1.786834560334682465e-02,-1.897488906979560852e-02
5.707000000000000000e+03,7.800000190734863281e+00,2.799999952316284180e+00,8.102731818837582978e-09,1.415863604137257425e-08,2.195497751235961914e+00,-1.772406883537769318e-02,-1.900446787476539612e-02
5.708000000000000000e+03,7.900000095367431641e+00,2.799999952316284180e+00,8.207527102399581054e-09,1.453092135506039995e-08,2.195429086685180664e+00,-1.759165525436401367e-02,-1.903107762336730957e-02
5.709000000000000000e+03,8.000000000000000000e+00,2.799999952316284180e+00,8.312317945069480629e-09,1.490796286418571981e-08,2.195369482040405273e+00,-1.747038029134273529e-02,-1.905519887804985046e-02
5.710000000000000000e+03,8.100000381469726562e+00,2.799999952316284180e+00,8.417105235025701404e-09,1.528976412146221264e-08,2.195317745208740234e+00,-1.735953614115715027e-02,-1.907704025506973267e-02
5.711000000000000000e+03,8.199999809265136719e+00,2.799999952316284180e+00,8.521888084089823678e-09,1.567632068599777995e-08,2.195273637771606445e+00,-1.725843735039234161e-02,-1.909641735255718231e-02
5.712000000000000000e+03,8.300000190734863281e+00,2.799999952316284180e+00,8.626668268618686852e-09,1.606763611050610052e-08,2.195235729217529297e+00,-1.716642081737518311e-02,-1.911415159702301025e-02
5.713000000000000000e+03,8.399999618530273438e+00,2.799999952316284180e+00,8.731445788612290926e-09,1.646370684227349557e-08,2.195204019546508789e+00,-1.708285324275493622e-02,-1.912967674434185028e-02
5.714000000000000000e+03,8.500000000000000000e+00,2.799999952316284180e+00,8.836221532249055599e-09,1.686453821037048328e-08,2.195177316665649414e+00,-1.700712554156780243e-02,-1.914387755095958710e-02
5.715000000000000000e+03,8.600000381469726562e+00,2.799999952316284180e+00,8.940994611350561172e-09,1.727012666208338487e-08,2.195155143737792969e+00,-1.693866029381752014e-02,-1.915635354816913605e-02
5.716000000000000000e+03,8.699999809265136719e+00,2.799999952316284180e+00,9.045765914095227345e-09,1.768047042105536093e-08,2.195137262344360352e+00,-1.687690615653991699e-02,-1.916724070906639099e-02
5.717000000000000000e+03,8.800000190734863281e+00,2.799999952316284180e+00,9.150536328661473817e-09,1.809557481635692966e-08,2.195122957229614258e+00,-1.682134158909320831e-02,-1.917721144855022430e-02
5.718000000000000000e+03,8.899999618530273438e+00,2.799999952316284180e+00,9.255304078692461189e-09,1.851543451891757286e-08,2.195111751556396484e+00,-1.677147112786769867e-02,-1.918565109372138977e-02
5.719000000000000000e+03,9.000000000000000000e+00,2.799999952316284180e+00,9.360072716901868262e-09,1.894005663416464813e-08,2.195103406906127930e+00,-1.672683469951152802e-02,-1.919340156018733978e-02
5.720000000000000000e+03,9.100000381469726562e+00,2.799999952316284180e+00,9.464839578754435934e-09,1.936943760938447667e-08,2.195097446441650391e+00,-1.668699271976947784e-02,-1.920001581311225891e-02
5.721000000000000000e+03,9.199999809265136719e+00,2.799999952316284180e+00,9.569604664250164205e-09,1.980357033914970089e-08,2.195093631744384766e+00,-1.665153726935386658e-02,-1.920558325946331024e-02
5.722000000000000000e+03,9.300000190734863281e+00,2.799999952316284180e+00,9.674370637924312177e-09,2.024246725795819657e-08,2.195091485977172852e+00,-1.662008650600910187e-02,-1.921074092388153076e-02
5.723000000000000000e+03,9.399999618530273438e+00,2.799999952316284180e+00,9.779135723420040449e-09,2.068611948402576672e-08,2.195090770721435547e+00,-1.659228466451168060e-02,-1.921483315527439117e-02
5.724000000000000000e+03,9.500000000000000000e+00,2.799999952316284180e+00,9.883900808915768721e-09,2.113453234642292955e-08,2.195091724395751953e+00,-1.656779646873474121e-02,-1.921866834163665771e-02
5.725000000000000000e+03,9.600000381469726562e+00,2.799999952316284180e+00,9.988665894411496993e-09,2.158770584514968505e-08,2.195093393325805664e+00,-1.654631458222866058e-02,-1.922176033258438110e-02
5.726000000000000000e+03,9.699999809265136719e+00,2.799999952316284180e+00,1.009343009172880556e-08,2.204563287477867561e-08,2.195096254348754883e+00,-1.652755588293075562e-02,-1.922417059540748596e-02
5.727000000000000000e+03,9.800000190734863281e+00,2.799999952316284180e+00,1.019819428904611414e-08,2.250832231709409825e-08,2.195099830627441406e+00,-1.651125401258468628e-02,-1.922650448977947235e-02
5.728000000000000000e+03,9.899999618530273438e+00,2.799999952316284180e+00,1.030295848636342271e-08,2.297576706666859536e-08,2.195103883743286133e+00,-1.649716310203075409e-02,-1.922808028757572174e-02
5.729000000000000000e+03,1.000000000000000000e+01,2.799999952316284180e+00,1.040772357185915098e-08,2.344797422892952454e-08,2.195108413696289062e+00,-1.648506149649620056e-02,-1.922967471182346344e-02
5.730000000000000000e+03,1.010000038146972656e+01,2.799999952316284180e+00,1.051248865735487925e-08,2.392494025116320699e-08,2.195113420486450195e+00,-1.647474057972431183e-02,-1.923078671097755432e-02
5.731000000000000000e+03,1.019999980926513672e+01,2.799999952316284180e+00,1.061725196649376812e-08,2.440665980429912452e-08,2.195118427276611328e+00,-1.646601222455501556e-02,-1.923143677413463593e-02
5.732000000000000000e+03,1.030000019073486328e+01,2.799999952316284180e+00,1.072201794016791609e-08,2.489314532283515291e-08,2.195123910903930664e+00,-1.645870134234428406e-02,-1.923223771154880524e-02
5.733000000000000000e+03,1.039999961853027344e+01,2.799999952316284180e+00,1.082678213748522467e-08,2.538438259591657697e-08,2.195129394531250000e+00,-1.645264960825443268e-02,-1.923245377838611603e-02
5.734000000000000000e+03,1.050000000000000000e+01,2.799999952316284180e+00,1.093154722298095294e-08,2.588038405804127251e-08,2.195134878158569336e+00,-1.644771359860897064e-02,-1.923288032412528992e-02
5.735000000000000000e+03,1.060000038146972656e+01,2.799999952316284180e+00,1.103631319665510091e-08,2.638114615649556072e-08,2.195140361785888672e+00,-1.644376106560230255e-02,-1.923296414315700531e-02
5.736000000000000000e+03,1.069999980926513672e+01,2.799999952316284180e+00,1.114107828215082918e-08,2.688666000949524459e-08,2.195145845413208008e+00,-1.644067466259002686e-02,-1.923273131251335144e-02
5.737000000000000000e+03,1.080000019073486328e+01,2.799999952316284180e+00,1.124584514400339685e-08,2.739693982789503934e-08,2.195151329040527344e+00,-1.643834263086318970e-02,-1.923277601599693298e-02
5.738000000000000000e+03,1.089999961853027344e+01,2.799999952316284180e+00,1.135061022949912513e-08,2.791197140084022976e-08,2.195156574249267578e+00,-1.643666997551918030e-02,-1.923234574496746063e-02
5.739000000000000000e+03,1.100000000000000000e+01,2.799999952316284180e+00,1.145537709135169280e-08,2.843176893918553105e-08,2.195161581039428711e+00,-1.643556728959083557e-02,-1.923222839832305908e-02
5.740000000000000000e+03,1.110000038146972656e+01,2.799999952316284180e+00,1.156014395320426047e-08,2.895632533750358562e-08,2.195166587829589844e+00,-1.643495634198188782e-02,-1.923185959458351135e-02
5.741000000000000000e+03,1.119999980926513672e+01,2.799999952316284180e+00,1.166490992687840844e-08,2.948563526672387525e-08,2.195171356201171875e+00,-1.643476635217666626e-02,-1.923125050961971283e-02
5.742000000000000000e+03,1.130000019073486328e+01,2.799999952316284180e+00,1.176967767690939581e-08,3.001970938498743635e-08,2.195175886154174805e+00,-1.643493212759494781e-02,-1.923098973929882050e-02
5.743000000000000000e+03,1.139999961853027344e+01,2.799999952316284180e+00,1.187444365058354379e-08,3.055853525779639313e-08,2.195180177688598633e+00,-1.643539778888225555e-02,-1.923031732439994812e-02
5.744000000000000000e+03,1.150000000000000000e+01,2.799999952316284180e+00,1.197921140061453116e-08,3.110212887236230017e-08,2.195184469223022461e+00,-1.643611304461956024e-02,-1.923001185059547424e-02
5.745000000000000000e+03,1.160000038146972656e+01,2.799999952316284180e+00,1.208398003882393823e-08,3.165047957054412109e-08,2.195188283920288086e+00,-1.643703319132328033e-02,-1.922950148582458496e-02
5.746000000000000000e+03,1.169999980926513672e+01,2.799999952316284180e+00,1.218874690067650590e-08,3.220358379962817708e-08,2.195192098617553711e+00,-1.643811911344528198e-02,-1.922879181802272797e-02
5.747000000000000000e+03,1.180000019073486328e+01,2.799999952316284180e+00,1.229351553888591297e-08,3.276145577046918334e-08,2.195195674896240234e+00,-1.643933542072772980e-02,-1.922846771776676178e-02
5.748000000000000000e+03,1.189999961853027344e+01,2.799999952316284180e+00,1.239828240073848065e-08,3.332407771949874586e-08,2.195199012756347656e+00,-1.644065231084823608e-02,-1.922776177525520325e-02
5.749000000000000000e+03,1.200000000000000000e+01,2.799999952316284180e+00,1.250305192712630742e-08,3.389146385757157987e-08,2.195202112197875977e+00,-1.644204370677471161e-02,-1.922744885087013245e-02
5.750000000000000000e+03,1.210000038146972656e+01,2.799999952316284180e+00,1.260782056533571449e-08,3.446361063197400654e-08,2.195204973220825195e+00,-1.644348539412021637e-02,-1.922695152461528778e-02
5.751000000000000000e+03,1.219999980926513672e+01,2.799999952316284180e+00,1.271258831536670186e-08,3.504051093727866828e-08,2.195207595825195312e+00,-1.644495688378810883e-02,-1.922627724707126617e-02
5.752000000000000000e+03,1.230000019073486328e+01,2.799999952316284180e+00,1.281735784175452864e-08,3.562217543162660149e-08,2.195210218429565430e+00,-1.644644141197204590e-02,-1.922600157558917999e-02
5.753000000000000000e+03,1.239999961853027344e+01,2.799999952316284180e+00,1.292212559178551601e-08,3.620859345687676978e-08,2.195212602615356445e+00,-1.644792594015598297e-02,-1.922535710036754608e-02
5.754000000000000000e+03,1.250000000000000000e+01,2.799999952316284180e+00,1.302689511817334278e-08,3.679977922388388833e-08,2.195214748382568359e+00,-1.644939556717872620e-02,-1.922511495649814606e-02
5.755000000000000000e+03,1.260000038146972656e+01,2.799999952316284180e+00,1.313166464456116955e-08,3.739571852179324196e-08,2.195216655731201172e+00,-1.645084284245967865e-02,-1.922469772398471832e-02
5.756000000000000000e+03,1.269999980926513672e+01,2.799999952316284180e+00,1.323643328277057662e-08,3.799641490331850946e-08,2.195218563079833984e+00,-1.645225845277309418e-02,-1.922410912811756134e-02
5.757000000000000000e+03,1.280000019073486328e+01,2.799999952316284180e+00,1.334120369733682310e-08,3.860187547388704843e-08,2.195220470428466797e+00,-1.645363494753837585e-02,-1.922392286360263824e-02
5.758000000000000000e+03,1.289999961853027344e+01,2.799999952316284180e+00,1.344597233554623017e-08,3.921208957535782247e-08,2.195221900939941406e+00,-1.645496673882007599e-02,-1.922336965799331665e-02
5.759000000000000000e+03,1.300000000000000000e+01,2.799999952316284180e+00,1.355074186193405694e-08,3.982706786587186798e-08,2.195223331451416016e+00,-1.645624823868274689e-02,-1.922322250902652740e-02
5.760000000000000000e+03,1.310000038146972656e+01,2.799999952316284180e+00,1.365551227650030341e-08,4.044680679271550616e-08,2.195224761962890625e+00,-1.645747758448123932e-02,-1.922290027141571045e-02
5.761000000000000000e+03,1.319999980926513672e+01,2.799999952316284180e+00,1.376028091470971049e-08,4.107129569774770061e-08,2.195225954055786133e+00,-1.645865291357040405e-02,-1.922240667045116425e-02
5.762000000000000000e+03,1.330000019073486328e+01,2.799999952316284180e+00,1.386505132927595696e-08,4.170055234453684534e-08,2.195227146148681641e+00,-1.645977236330509186e-02,-1.922231353819370270e-02
5.763000000000000000e+03,1.339999961853027344e+01,2.799999952316284180e+00,1.396982085566378373e-08,4.233456252222822513e-08,2.195228099822998047e+00,-1.646083407104015350e-02,-1.922185532748699188e-02
5.764000000000000000e+03,1.350000000000000000e+01,2.799999952316284180e+00,1.407459127023003020e-08,4.297333688896287640e-08,2.195229053497314453e+00,-1.646183989942073822e-02,-1.922179944813251495e-02
5.765000000000000000e+03,1.360000038146972656e+01,2.799999952316284180e+00,1.417936079661785698e-08,4.361686833931344154e-08,2.195230007171630859e+00,-1.646278612315654755e-02,-1.922156848013401031e-02
5.766000000000000000e+03,1.369999980926513672e+01,2.799999952316284180e+00,1.428413032300568375e-08,4.426515332056624175e-08,2.195230722427368164e+00,-1.646367646753787994e-02,-1.922116242349147797e-02
5.767000000000000000e+03,1.380000019073486328e+01,2.799999952316284180e+00,1.438890073757193022e-08,4.491820604357599223e-08,2.195231437683105469e+00,-1.646450906991958618e-02,-1.922115869820117950e-02
5.768000000000000000e+03,1.389999961853027344e+01,2.799999952316284180e+00,1.449367026395975699e-08,4.557600874477429898e-08,2.195232152938842773e+00,-1.646528765559196472e-02,-1.922078616917133331e-02
5.769000000000000000e+03,1.400000000000000000e+01,2.799999952316284180e+00,1.459844067852600347e-08,4.623857918772955600e-08,2.195232629776000977e+00,-1.646601222455501556e-02,-1.922081597149372101e-02
5.770000000000000000e+03,1.410000038146972656e+01,2.799999952316284180e+00,1.470321198127066964e-08,4.690591026701440569e-08,2.195233106613159180e+00,-1.646668277680873871e-02,-1.922066882252693176e-02
5.771000000000000000e+03,1.419999980926513672e+01,2.799999952316284180e+00,1.480798150765849641e-08,4.757799132448781165e-08,2.195233583450317383e+00,-1.646730117499828339e-02,-1.922035031020641327e-02
5.772000000000000000e+03,1.430000019073486328e+01,2.799999952316284180e+00,1.491275192222474288e-08,4.825483657100448909e-08,2.195233821868896484e+00,-1.646786741912364960e-02,-1.922043412923812866e-02
5.773000000000000000e+03,1.439999961853027344e+01,2.799999952316284180e+00,1.501752144861256966e-08,4.893643534842340159e-08,2.195234298706054688e+00,-1.646838523447513580e-02,-1.922015286982059479e-02
5.774000000000000000e+03,1.450000000000000000e+01,2.799999952316284180e+00,1.512229275135723583e-08,4.962280186759926437e-08,2.195234537124633789e+00,-1.646885462105274200e-02,-1.922027952969074249e-02
5.775000000000000000e+03,1.460000038146972656e+01,2.799999952316284180e+00,1.522706227774506260e-08,5.031392547039104102e-08,2.195234775543212891e+00,-1.646927557885646820e-02,-1.922023855149745941e-02
5.776000000000000000e+03,1.469999980926513672e+01,2.799999952316284180e+00,1.533183180413288937e-08,5.100980260408505274e-08,2.195235013961791992e+00,-1.646964810788631439e-02,-1.922003179788589478e-02
5.777000000000000000e+03,1.480000019073486328e+01,2.799999952316284180e+00,1.543660310687755555e-08,5.171044747953601473e-08,2.195235252380371094e+00,-1.646997407078742981e-02,-1.922024041414260864e-02
5.778000000000000000e+03,1.489999961853027344e+01,2.799999952316284180e+00,1.554137263326538232e-08,5.241583878046185418e-08,2.195235490798950195e+00,-1.647025160491466522e-02,-1.922009885311126709e-02
5.779000000000000000e+03,1.500000000000000000e+01,2.799999952316284180e+00,1.564614393601004849e-08,5.312600137585832272e-08,2.195235490798950195e+00,-1.647048071026802063e-02,-1.922038383781909943e-02
5.780000000000000000e+03,1.510000038146972656e+01,2.799999952316284180e+00,1.575091346239787526e-08,5.384092105487070512e-08,2.195235490798950195e+00,-1.647065952420234680e-02,-1.922052353620529175e-02
5.781000000000000000e+03,1.519999980926513672e+01,2.799999952316284180e+00,1.585568476514254144e-08,5.456059426478532259e-08,2.195235490798950195e+00,-1.647078804671764374e-02,-1.922052353620529175e-02
5.782000000000000000e+03,1.530000019073486328e+01,2.799999952316284180e+00,1.596045429153036821e-08,5.528503166374321154e-08,2.195235490798950195e+00,-1.647086441516876221e-02,-1.922097429633140564e-02
5.783000000000000000e+03,1.539999961853027344e+01,2.799999952316284180e+00,1.606522381791819498e-08,5.601421904088965675e-08,2.195235490798950195e+00,-1.647088304162025452e-02,-1.922111399471759796e-02
5.784000000000000000e+03,1.550000000000000000e+01,2.799999952316284180e+00,1.616999512066286115e-08,5.674817771250673104e-08,2.195235252380371094e+00,-1.647084392607212067e-02,-1.922172680497169495e-02
5.785000000000000000e+03,1.560000038146972656e+01,2.799999952316284180e+00,1.627476642340752733e-08,5.748689346773971920e-08,2.195235013961791992e+00,-1.647074148058891296e-02,-1.922224834561347961e-02
5.786000000000000000e+03,1.569999980926513672e+01,2.799999952316284180e+00,1.637953594979535410e-08,5.823035920116126363e-08,2.195234775543212891e+00,-1.647057011723518372e-02,-1.922269910573959351e-02
5.787000000000000000e+03,1.580000019073486328e+01,2.799999952316284180e+00,1.648430547618318087e-08,5.897859267633975833e-08,2.195234537124633789e+00,-1.647032424807548523e-02,-1.922367140650749207e-02
5.788000000000000000e+03,1.589999961853027344e+01,2.799999952316284180e+00,1.658907500257100764e-08,5.973157612970680930e-08,2.195234060287475586e+00,-1.646999828517436981e-02,-1.922442391514778137e-02
5.789000000000000000e+03,1.600000000000000000e+01,2.799999952316284180e+00,1.669384630531567382e-08,6.048932732483081054e-08,2.195233583450317383e+00,-1.646958477795124054e-02,-1.922575011849403381e-02
5.790000000000000000e+03,1.610000038146972656e+01,2.799999952316284180e+00,1.679861760806033999e-08,6.125183915628440445e-08,2.195232868194580078e+00,-1.646907255053520203e-02,-1.922710239887237549e-02
5.791000000000000000e+03,1.620000076293945312e+01,2.799999952316284180e+00,1.690338713444816676e-08,6.201911162406759104e-08,2.195232152938842773e+00,-1.646845601499080658e-02,-1.922870799899101257e-02
5.792000000000000000e+03,1.629999923706054688e+01,2.799999952316284180e+00,1.700815666083599353e-08,6.279112341189829749e-08,2.195231199264526367e+00,-1.646772399544715881e-02,-1.923022232949733734e-02
5.793000000000000000e+03,1.639999961853027344e+01,2.799999952316284180e+00,1.711292618722382031e-08,6.356791004691331182e-08,2.195230245590209961e+00,-1.646686717867851257e-02,-1.923284120857715607e-02
5.794000000000000000e+03,1.650000000000000000e+01,2.799999952316284180e+00,1.721769748996848648e-08,6.434945731825791881e-08,2.195228815078735352e+00,-1.646587066352367401e-02,-1.923546008765697479e-02
5.795000000000000000e+03,1.660000038146972656e+01,2.799999952316284180e+00,1.732246701635631325e-08,6.513575812050476088e-08,2.195227384567260742e+00,-1.646472699940204620e-02,-1.923851855099201202e-02
5.796000000000000000e+03,1.670000076293945312e+01,2.799999952316284180e+00,1.742723654274414002e-08,6.592682666450855322e-08,2.195225715637207031e+00,-1.646342314779758453e-02,-1.924207434058189392e-02
5.797000000000000000e+03,1.679999923706054688e+01,2.799999952316284180e+00,1.753200429277512740e-08,6.672262742313250783e-08,2.195223569869995117e+00,-1.646194793283939362e-02,-1.924581080675125122e-02
5.798000000000000000e+03,1.689999961853027344e+01,2.799999952316284180e+00,1.763677559551979357e-08,6.752321013436812791e-08,2.195221185684204102e+00,-1.646029576659202576e-02,-1.925095357000827789e-02
5.799000000000000000e+03,1.700000000000000000e+01,2.799999952316284180e+00,1.774154512190762034e-08,6.832855348193334066e-08,2.195218324661254883e+00,-1.645845547318458557e-02,-1.925642229616641998e-02
5.800000000000000000e+03,1.710000038146972656e+01,2.799999952316284180e+00,1.784631464829544711e-08,6.913865036040078849e-08,2.195215225219726562e+00,-1.645642518997192383e-02,-1.926268264651298523e-02
5.801000000000000000e+03,1.720000076293945312e+01,2.799999952316284180e+00,1.795108417468327389e-08,6.995350787519782898e-08,2.195211648941040039e+00,-1.645420491695404053e-02,-1.926982216536998749e-02
5.802000000000000000e+03,1.729999923706054688e+01,2.799999952316284180e+00,1.805585014835742186e-08,7.077311181546974694e-08,2.195207357406616211e+00,-1.645180024206638336e-02,-1.927754096686840057e-02
5.803000000000000000e+03,1.739999961853027344e+01,2.799999952316284180e+00,1.816061967474524863e-08,7.159748349749861518e-08,2.195202827453613281e+00,-1.644922792911529541e-02,-1.928707771003246307e-02
5.804000000000000000e+03,1.750000000000000000e+01,2.799999952316284180e+00,1.826538742477623600e-08,7.242661581585707609e-08,2.195197582244873047e+00,-1.644651219248771667e-02,-1.929736509919166565e-02
5.805000000000000000e+03,1.760000038146972656e+01,2.799999952316284180e+00,1.837015695116406278e-08,7.326050877054512966e-08,2.195191621780395508e+00,-1.644369028508663177e-02,-1.930886134505271912e-02
5.806000000000000000e+03,1.770000076293945312e+01,2.799999952316284180e+00,1.847492470119505015e-08,7.409916236156277591e-08,2.195185184478759766e+00,-1.644081436097621918e-02,-1.932163350284099579e-02
5.807000000000000000e+03,1.779999923706054688e+01,2.799999952316284180e+00,1.857969067486919812e-08,7.494254816720058443e-08,2.195177793502807617e+00,-1.643795706331729889e-02,-1.933534257113933563e-02
5.808000000000000000e+03,1.789999961853027344e+01,2.799999952316284180e+00,1.868445664854334609e-08,7.579071592545005842e-08,2.195169925689697266e+00,-1.643521338701248169e-02,-1.935116201639175415e-02
5.809000000000000000e+03,1.800000000000000000e+01,2.799999952316284180e+00,1.878922439857433346e-08,7.664364432002912508e-08,2.195161581039428711e+00,-1.643270067870616913e-02,-1.936792768537998199e-02
5.810000000000000000e+03,1.810000038146972656e+01,2.799999952316284180e+00,1.889399037224848144e-08,7.750132624551042682e-08,2.195152282714843750e+00,-1.643056422472000122e-02,-1.938596367835998535e-02
5.811000000000000000e+03,1.820000076293945312e+01,2.799999952316284180e+00,1.899875634592262941e-08,7.836376880732132122e-08,2.195142507553100586e+00,-1.642898097634315491e-02,-1.940515637397766113e-02
5.812000000000000000e+03,1.829999923706054688e+01,2.799999952316284180e+00,1.910351876688309858e-08,7.923095068917973549e-08,2.195132493972778320e+00,-1.642815396189689636e-02,-1.942493207752704620e-02
5.813000000000000000e+03,1.839999961853027344e+01,2.799999952316284180e+00,1.920828296420040715e-08,8.010291452364981524e-08,2.195122003555297852e+00,-1.642831973731517792e-02,-1.944617740809917450e-02
5.814000000000000000e+03,1.850000000000000000e+01,2.799999952316284180e+00,1.931304716151771572e-08,8.097963188902213005e-08,2.195111274719238281e+00,-1.642973534762859344e-02,-1.946736685931682587e-02
5.815000000000000000e+03,1.860000038146972656e+01,2.799999952316284180e+00,1.941781135883502429e-08,8.186110989072403754e-08,2.195100784301757812e+00,-1.643267646431922913e-02,-1.948840357363224030e-02
5.816000000000000000e+03,1.870000076293945312e+01,2.799999952316284180e+00,1.952257555615233287e-08,8.274734142332818010e-08,2.195090532302856445e+00,-1.643742434680461884e-02,-1.950868591666221619e-02
5.817000000000000000e+03,1.879999923706054688e+01,2.799999952316284180e+00,1.962733620075596264e-08,8.363831938140720013e-08,2.195080757141113281e+00,-1.644425094127655029e-02,-1.952709071338176727e-02
5.818000000000000000e+03,1.889999961853027344e+01,2.799999952316284180e+00,1.973209862171643181e-08,8.453407218667052803e-08,2.195071935653686523e+00,-1.645340211689472198e-02,-1.954391039907932281e-02
5.819000000000000000e+03,1.900000000000000000e+01,2.799999952316284180e+00,1.983686104267690098e-08,8.543459273369080620e-08,2.195064067840576172e+00,-1.646506600081920624e-02,-1.955700293183326721e-02
5.820000000000000000e+03,1.910000038146972656e+01,2.799999952316284180e+00,1.994162346363737015e-08,8.633986681161331944e-08,2.195057868957519531e+00,-1.647936366498470306e-02,-1.956566236913204193e-02
5.821000000000000000e+03,1.920000076293945312e+01,2.799999952316284180e+00,2.004638588459783932e-08,8.724990152586542536e-08,2.195053100585937500e+00,-1.649630628526210785e-02,-1.956872828304767609e-02
5.822000000000000000e+03,1.929999923706054688e+01,2.799999952316284180e+00,2.015114652920146909e-08,8.816468266559240874e-08,2.195050001144409180e+00,-1.651578769087791443e-02,-1.956462487578392029e-02
5.823000000000000000e+03,1.939999961853027344e+01,2.799999952316284180e+00,2.025590895016193826e-08,8.908424575793105760e-08,2.195048809051513672e+00,-1.653756573796272278e-02,-1.955334283411502838e-02
5.824000000000000000e+03,1.950000000000000000e+01,2.799999952316284180e+00,2.036067137112240744e-08,9.000857659202665673e-08,2.195049047470092773e+00,-1.656125299632549286e-02,-1.953265815973281860e-02
5.825000000000000000e+03,1.960000038146972656e+01,2.799999952316284180e+00,2.046543556843971601e-08,9.093766806245184853e-08,2.195050716400146484e+00,-1.658632978796958923e-02,-1.950204558670520782e-02
5.826000000000000000e+03,1.970000076293945312e+01,2.799999952316284180e+00,2.057019976575702458e-08,9.187152727463399060e-08,2.195053577423095703e+00,-1.661216095089912415e-02,-1.946082897484302521e-02
5.827000000000000000e+03,1.979999923706054688e+01,2.799999952316284180e+00,2.067496218671749375e-08,9.281013291229101014e-08,2.195057153701782227e+00,-1.663803681731224060e-02,-1.940823905169963837e-02
5.828000000000000000e+03,1.989999961853027344e+01,2.799999952316284180e+00,2.077972816039164172e-08,9.375352760798705276e-08,2.195060491561889648e+00,-1.666321977972984314e-02,-1.934537850320339203e-02
5.829000000000000000e+03,2.000000000000000000e+01,2.799999952316284180e+00,2.088449235770895029e-08,9.470169715086740325e-08,2.195063591003417969e+00,-1.668700389564037323e-02,-1.927143894135951996e-02
5.830000000000000000e+03,0.000000000000000000e+00,2.900000095367431641e+00,8.567685106441607083e-38,1.689221157841940747e-38,1.975528001785278320e+00,5.926584005355834961e-01,-2.085732668638229370e-01
5.831000000000000000e+03,1.000000014901161194e-01,2.900000095367431641e+00,8.560621655995248602e-11,-2.582335734135909888e-11,1.964043498039245605e+00,5.543767809867858887e-01,-2.412224858999252319e-01
5.832000000000000000e+03,2.000000029802322388e-01,2.900000095367431641e+00,1.722532672054910563e-10,-4.441192552606665345e-11,1.976479053497314453e+00,5.229694247245788574e-01,-2.160497754812240601e-01
5.833000000000000000e+03,3.000000119209289551e-01,2.900000095367431641e+00,2.599443715833871238e-10,-5.595043178763248193e-11,1.988937973976135254e+00,4.914169907569885254e-01,-1.929630488157272339e-01
5.834000000000000000e+03,4.000000059604644775e-01,2.900000095367431641e+00,3.486771427141377444e-10,-6.061579016503060302e-11,2.001349687576293945e+00,4.598716497421264648e-01,-1.718743443489074707e-01
5.835000000000000000e+03,5.000000000000000000e-01,2.900000095367431641e+00,4.384429486137264576e-10,-5.857617169091611231e-11,2.013632059097290039e+00,4.285000860691070557e-01,-1.526836156845092773e-01
5.836000000000000000e+03,6.000000238418579102e-01,2.900000095367431641e+00,5.292263294265353579e-10,-4.999039723840859040e-11,2.025693893432617188e+00,3.974772095680236816e-01,-1.352830231189727783e-01
5.837000000000000000e+03,6.999999880790710449e-01,2.900000095367431641e+00,6.210046921140133236e-10,-3.500772588482803371e-11,2.037440299987792969e+00,3.669799566268920898e-01,-1.195605918765068054e-01
5.838000000000000000e+03,8.000000119209289551e-01,2.900000095367431641e+00,7.137486157660077879e-10,-1.376778118594712552e-11,2.048776388168334961e+00,3.371806442737579346e-01,-1.054033711552619934e-01
5.839000000000000000e+03,8.999999761581420898e-01,2.900000095367431641e+00,8.074219071119159707e-10,1.359919989118996142e-11,2.059612274169921875e+00,3.082414865493774414e-01,-9.269955754280090332e-02
5.840000000000000000e+03,1.000000000000000000e+00,2.900000095367431641e+00,9.019825997214070412e-10,4.697214839310959178e-11,2.069866657257080078e+00,2.803093492984771729e-01,-8.134032040834426880e-02
5.841000000000000000e+03,1.100000023841857910e+00,2.900000095367431641e+00,9.973833980936319676e-10,8.623866898371801426e-11,2.079469680786132812e+00,2.535123229026794434e-01,-7.122068852186203003e-02
5.842000000000000000e+03,1.200000047683715820e+00,2.900000095367431641e+00,1.093572898902550605e-09,1.312946973364148562e-10,2.088365793228149414e+00,2.279570400714874268e-01,-6.224025413393974304e-02
5.843000000000000000e+03,1.299999952316284180e+00,2.900000095367431641e+00,1.190496368153048934e-09,1.820439354816016930e-10,2.096513748168945312e+00,2.037273794412612915e-01,-5.430341884493827820e-02
5.844000000000000000e+03,1.399999976158142090e+00,2.900000095367431641e+00,1.288097517537778458e-09,2.383977182329743982e-10,2.103888273239135742e+00,1.808841824531555176e-01,-4.731962829828262329e-02
5.845000000000000000e+03,1.500000000000000000e+00,2.900000095367431641e+00,1.386318393414853745e-09,3.002742221536180978e-10,2.110478401184082031e+00,1.594661176204681396e-01,-4.120315238833427429e-02
5.846000000000000000e+03,1.600000023841857910e+00,2.900000095367431641e+00,1.485101264186994285e-09,3.675982018780388216e-10,2.116286993026733398e+00,1.394909471273422241e-01,-3.587331995368003845e-02
5.847000000000000000e+03,1.700000047683715820e+00,2.900000095367431641e+00,1.584389064390734347e-09,4.403007125564073476e-10,2.121329069137573242e+00,1.209574490785598755e-01,-3.125431761145591736e-02
5.848000000000000000e+03,1.799999952316284180e+00,2.900000095367431641e+00,1.684125838785632823e-09,5.183184992318956574e-10,2.125629901885986328e+00,1.038477793335914612e-01,-2.727517858147621155e-02
5.849000000000000000e+03,1.899999976158142090e+00,2.900000095367431641e+00,1.784258518711112629e-09,6.015941078629793992e-10,2.129223346710205078e+00,8.812970668077468872e-02,-2.386984601616859436e-02
5.850000000000000000e+03,2.000000000000000000e+00,2.900000095367431641e+00,1.884735700841133621e-09,6.900748306115644937e-10,2.132150173187255859e+00,7.375923544168472290e-02,-2.097686566412448883e-02
5.851000000000000000e+03,2.099999904632568359e+00,2.900000095367431641e+00,1.985509534563334455e-09,7.837127058429871340e-10,2.134455680847167969e+00,6.068288534879684448e-02,-1.853954792022705078e-02
5.852000000000000000e+03,2.200000047683715820e+00,2.900000095367431641e+00,2.086535166867520275e-09,8.824648789484967892e-10,2.136188745498657227e+00,4.883984476327896118e-02,-1.650585979223251343e-02
5.853000000000000000e+03,2.299999952316284180e+00,2.900000095367431641e+00,2.187770853367965174e-09,9.862913818992069537e-10,2.137399911880493164e+00,3.816418349742889404e-02,-1.482794992625713348e-02
5.854000000000000000e+03,2.400000095367431641e+00,2.900000095367431641e+00,2.289178846481831897e-09,1.095157409203295629e-09,2.138139963150024414e+00,2.858638204634189606e-02,-1.346260216087102890e-02
5.855000000000000000e+03,2.500000000000000000e+00,2.900000095367431641e+00,2.390723841116937365e-09,1.209030431326141297e-09,2.138460159301757812e+00,2.003514952957630157e-02,-1.237029023468494415e-02
5.856000000000000000e+03,2.599999904632568359e+00,2.900000095367431641e+00,2.492375195117801923e-09,1.327881804513708630e-09,2.138409137725830078e+00,1.243853196501731873e-02,-1.151569560170173645e-02
5.857000000000000000e+03,2.700000047683715820e+00,2.900000095367431641e+00,2.594104708819600091e-09,1.451685993636431249e-09,2.138034343719482422e+00,5.725111346691846848e-03,-1.086697261780500412e-02
5.858000000000000000e+03,2.799999952316284180e+00,2.900000095367431641e+00,2.695887069137370418e-09,1.580419128899279713e-09,2.137380838394165039e+00,-1.750611118040978909e-04,-1.039550919085741043e-02
5.859000000000000000e+03,2.900000095367431641e+00,2.900000095367431641e+00,2.797700959789040098e-09,1.714061115265508306e-09,2.136490583419799805e+00,-5.329883657395839691e-03,-1.007615588605403900e-02
5.860000000000000000e+03,3.000000000000000000e+00,2.900000095367431641e+00,2.899526840849375731e-09,1.852592634854488551e-09,2.135402202606201172e+00,-9.804535657167434692e-03,-9.886237792670726776e-03
5.861000000000000000e+03,3.099999904632568359e+00,2.900000095367431641e+00,3.001348281017612862e-09,1.995997367387758459e-09,2.134151935577392578e+00,-1.366118155419826508e-02,-9.806034155189990997e-03
5.862000000000000000e+03,3.200000047683715820e+00,2.900000095367431641e+00,3.103151069439036291e-09,2.144260768943695439e-09,2.132771730422973633e+00,-1.695864647626876831e-02,-9.818051941692829132e-03
5.863000000000000000e+03,3.299999952316284180e+00,2.900000095367431641e+00,3.204923215704980066e-09,2.297368739689886752e-09,2.131291627883911133e+00,-1.975223235785961151e-02,-9.906788356602191925e-03
5.864000000000000000e+03,3.400000095367431641e+00,2.900000095367431641e+00,3.306655171897432410e-09,2.455310843529900922e-09,2.129737615585327148e+00,-2.209368161857128143e-02,-1.005900558084249496e-02
5.865000000000000000e+03,3.500000000000000000e+00,2.900000095367431641e+00,3.408338056232196323e-09,2.618075090055071996e-09,2.128132820129394531e+00,-2.403110638260841370e-02,-1.026279199868440628e-02
5.866000000000000000e+03,3.599999904632568359e+00,2.900000095367431641e+00,3.509965651460333902e-09,2.785653263615017750e-09,2.126498222351074219e+00,-2.560907416045665741e-02,-1.050811167806386948e-02
5.867000000000000000e+03,3.700000047683715820e+00,2.900000095367431641e+00,3.611533072600536798e-09,2.958036926514751030e-09,2.124851465225219727e+00,-2.686865814030170441e-02,-1.078614126890897751e-02
5.868000000000000000e+03,3.799999952316284180e+00,2.900000095367431641e+00,3.713035878760706510e-09,3.135218307193099463e-09,2.123208045959472656e+00,-2.784756198525428772e-02,-1.108911633491516113e-02
5.869000000000000000e+03,3.900000095367431641e+00,2.900000095367431641e+00,3.814471849494793787e-09,3.317191854534939921e-09,2.121581077575683594e+00,-2.858026698231697083e-02,-1.141067687422037125e-02
5.870000000000000000e+03,4.000000000000000000e+00,2.900000095367431641e+00,3.915839208445959230e-09,3.503951129246729579e-09,2.119981765747070312e+00,-2.909817919135093689e-02,-1.174501050263643265e-02
5.871000000000000000e+03,4.099999904632568359e+00,2.900000095367431641e+00,4.017136401301968363e-09,3.695491024302555161e-09,2.118419408798217773e+00,-2.942980267107486725e-02,-1.208747178316116333e-02
5.872000000000000000e+03,4.199999809265136719e+00,2.900000095367431641e+00,4.118364316241240886e-09,3.891807764944132941e-09,2.116901397705078125e+00,-2.960091643035411835e-02,-1.243394613265991211e-02
5.873000000000000000e+03,4.300000190734863281e+00,2.900000095367431641e+00,4.219522953263776799e-09,4.092898020502389045e-09,2.115434169769287109e+00,-2.963474765419960022e-02,-1.278108637779951096e-02
5.874000000000000000e+03,4.400000095367431641e+00,2.900000095367431641e+00,4.320612756458785952e-09,4.298756905996015121e-09,2.114022016525268555e+00,-2.955215610563755035e-02,-1.312574185431003571e-02
5.875000000000000000e+03,4.500000000000000000e+00,2.900000095367431641e+00,4.421635502183107747e-09,4.509382645068171769e-09,2.112668991088867188e+00,-2.937179803848266602e-02,-1.346579007804393768e-02
5.876000000000000000e+03,4.599999904632568359e+00,2.900000095367431641e+00,4.522592966793581581e-09,4.724772129094390039e-09,2.111377000808715820e+00,-2.911030501127243042e-02,-1.379917096346616745e-02
5.877000000000000000e+03,4.699999809265136719e+00,2.900000095367431641e+00,4.623487370736256707e-09,4.944923581717830530e-09,2.110147953033447266e+00,-2.878244034945964813e-02,-1.412428356707096100e-02
5.878000000000000000e+03,4.800000190734863281e+00,2.900000095367431641e+00,4.724320934457182375e-09,5.169836114760073542e-09,2.108982801437377930e+00,-2.840126305818557739e-02,-1.443993207067251205e-02
5.879000000000000000e+03,4.900000095367431641e+00,2.900000095367431641e+00,4.825095878402407834e-09,5.399505731418230425e-09,2.107881307601928711e+00,-2.797827124595642090e-02,-1.474483776837587357e-02
5.880000000000000000e+03,5.000000000000000000e+00,2.900000095367431641e+00,4.925814867107192185e-09,5.633932875781511029e-09,2.106843233108520508e+00,-2.752353996038436890e-02,-1.503850705921649933e-02
5.881000000000000000e+03,5.099999904632568359e+00,2.900000095367431641e+00,5.026480565106794529e-09,5.873115771493075954e-09,2.105867862701416016e+00,-2.704585529863834381e-02,-1.532029453665018082e-02
5.882000000000000000e+03,5.199999809265136719e+00,2.900000095367431641e+00,5.127095636936473966e-09,6.117053974463715349e-09,2.104953527450561523e+00,-2.655283920466899872e-02,-1.558982115238904953e-02
5.883000000000000000e+03,5.300000190734863281e+00,2.900000095367431641e+00,5.227663635309909296e-09,6.365747484693429215e-09,2.104098558425903320e+00,-2.605105750262737274e-02,-1.584694907069206238e-02
5.884000000000000000e+03,5.400000095367431641e+00,2.900000095367431641e+00,5.328185448405520219e-09,6.619193637646958450e-09,2.103301286697387695e+00,-2.554614096879959106e-02,-1.609130762517452240e-02
5.885000000000000000e+03,5.500000000000000000e+00,2.900000095367431641e+00,5.428665073026195387e-09,6.877393321502722756e-09,2.102559566497802734e+00,-2.504286356270313263e-02,-1.632318645715713501e-02
5.886000000000000000e+03,5.599999904632568359e+00,2.900000095367431641e+00,5.529104729617984049e-09,7.140345648082302432e-09,2.101871013641357422e+00,-2.454524487257003784e-02,-1.654260419309139252e-02
5.887000000000000000e+03,5.699999809265136719e+00,2.900000095367431641e+00,5.629507082716145305e-09,7.408051061474907328e-09,2.101233482360839844e+00,-2.405663207173347473e-02,-1.674974896013736725e-02
5.888000000000000000e+03,5.800000190734863281e+00,2.900000095367431641e+00,5.729874796855938257e-09,7.680509561680537445e-09,2.100644111633300781e+00,-2.357976883649826050e-02,-1.694495975971221924e-02
5.889000000000000000e+03,5.900000095367431641e+00,2.900000095367431641e+00,5.830210092483412154e-09,7.957719816431563231e-09,2.100100994110107422e+00,-2.311688475310802460e-02,-1.712827198207378387e-02
5.890000000000000000e+03,6.000000000000000000e+00,2.900000095367431641e+00,5.930514745955406397e-09,8.239682713906404388e-09,2.099601030349731445e+00,-2.266972884535789490e-02,-1.730030216276645660e-02
5.891000000000000000e+03,6.099999904632568359e+00,2.900000095367431641e+00,6.030791421807180086e-09,8.526397365926641214e-09,2.099142313003540039e+00,-2.223964966833591461e-02,-1.746134832501411438e-02
5.892000000000000000e+03,6.199999809265136719e+00,2.900000095367431641e+00,6.131042340484782471e-09,8.817865548849113111e-09,2.098721981048583984e+00,-2.182764187455177307e-02,-1.761181466281414032e-02
5.893000000000000000e+03,6.300000190734863281e+00,2.900000095367431641e+00,6.231269722434262803e-09,9.114087262673820078e-09,2.098337888717651367e+00,-2.143438346683979034e-02,-1.775221899151802063e-02
5.894000000000000000e+03,6.400000095367431641e+00,2.900000095367431641e+00,6.331474455834040782e-09,9.415059842865503015e-09,2.097987413406372070e+00,-2.106029912829399109e-02,-1.788272894918918610e-02
5.895000000000000000e+03,6.500000000000000000e+00,2.900000095367431641e+00,6.431659205219375508e-09,9.720785953959421022e-09,2.097668647766113281e+00,-2.070557512342929840e-02,-1.800406165421009064e-02
5.896000000000000000e+03,6.599999904632568359e+00,2.900000095367431641e+00,6.531825302857896531e-09,1.003126559595557410e-08,2.097378969192504883e+00,-2.037020400166511536e-02,-1.811658591032028198e-02
5.897000000000000000e+03,6.699999809265136719e+00,2.900000095367431641e+00,6.631974525106443252e-09,1.034649788067554255e-08,2.097116708755493164e+00,-2.005401998758316040e-02,-1.822075061500072479e-02
5.898000000000000000e+03,6.800000190734863281e+00,2.900000095367431641e+00,6.732108648321855071e-09,1.066648636083300516e-08,2.096879720687866211e+00,-1.975671388208866119e-02,-1.831709034740924835e-02
5.899000000000000000e+03,6.900000095367431641e+00,2.900000095367431641e+00,6.832228116593341838e-09,1.099122659553586345e-08,2.096666097640991211e+00,-1.947787031531333923e-02,-1.840577647089958191e-02
5.900000000000000000e+03,7.000000000000000000e+00,2.900000095367431641e+00,6.932334706277742953e-09,1.132072124931937651e-08,2.096473932266235352e+00,-1.921697705984115601e-02,-1.848751306533813477e-02
5.901000000000000000e+03,7.099999904632568359e+00,2.900000095367431641e+00,7.032429305553478116e-09,1.165496943400512464e-08,2.096301794052124023e+00,-1.897344924509525299e-02,-1.856263168156147003e-02
5.902000000000000000e+03,7.199999809265136719e+00,2.900000095367431641e+00,7.132513690777386728e-09,1.199397292594994724e-08,2.096147537231445312e+00,-1.874664984643459320e-02,-1.863154582679271698e-02
5.903000000000000000e+03,7.300000190734863281e+00,2.900000095367431641e+00,7.232588750127888488e-09,1.233773261333226401e-08,2.096010208129882812e+00,-1.853589527308940887e-02,-1.869473606348037720e-02
5.904000000000000000e+03,7.400000095367431641e+00,2.900000095367431641e+00,7.332654927694193248e-09,1.268624671979523555e-08,2.095888137817382812e+00,-1.834047213196754456e-02,-1.875231601297855377e-02
5.905000000000000000e+03,7.500000000000000000e+00,2.900000095367431641e+00,7.432713111654720706e-09,1.303951524533886186e-08,2.095779895782470703e+00,-1.815965212881565094e-02,-1.880491897463798523e-02
5.906000000000000000e+03,7.599999904632568359e+00,2.900000095367431641e+00,7.532764634277100413e-09,1.339753907814156264e-08,2.095684289932250977e+00,-1.799269020557403564e-02,-1.885281316936016083e-02
5.907000000000000000e+03,7.699999809265136719e+00,2.900000095367431641e+00,7.632809939650542219e-09,1.376031910638175759e-08,2.095600366592407227e+00,-1.783884502947330475e-02,-1.889633201062679291e-02
5.908000000000000000e+03,7.800000190734863281e+00,2.900000095367431641e+00,7.732849915953465825e-09,1.412785710641628611e-08,2.095526695251464844e+00,-1.769737526774406433e-02,-1.893588155508041382e-02
5.909000000000000000e+03,7.900000095367431641e+00,2.900000095367431641e+00,7.832884563185871230e-09,1.450014952553146941e-08,2.095462799072265625e+00,-1.756755821406841278e-02,-1.897149160504341125e-02
5.910000000000000000e+03,8.000000000000000000e+00,2.900000095367431641e+00,7.932915657704597834e-09,1.487719814008414687e-08,2.095407009124755859e+00,-1.744867302477359772e-02,-1.900372281670570374e-02
5.911000000000000000e+03,8.100000381469726562e+00,2.900000095367431641e+00,8.032942311331225937e-09,1.525900472643115791e-08,2.095359086990356445e+00,-1.734002865850925446e-02,-1.903284713625907898e-02
5.912000000000000000e+03,8.199999809265136719e+00,2.900000095367431641e+00,8.132965412244175241e-09,1.564556484368040401e-08,2.095318078994750977e+00,-1.724094897508621216e-02,-1.905875280499458313e-02
5.913000000000000000e+03,8.300000190734863281e+00,2.900000095367431641e+00,8.232985848621865443e-09,1.603688737361608219e-08,2.095283269882202148e+00,-1.715078577399253845e-02,-1.908231899142265320e-02
5.914000000000000000e+03,8.399999618530273438e+00,2.900000095367431641e+00,8.333003620464296546e-09,1.643296165809715603e-08,2.095253944396972656e+00,-1.706891506910324097e-02,-1.910303905606269836e-02
5.915000000000000000e+03,8.500000000000000000e+00,2.900000095367431641e+00,8.433019615949888248e-09,1.683379657890782255e-08,2.095229387283325195e+00,-1.699473522603511810e-02,-1.912185549736022949e-02
5.916000000000000000e+03,8.600000381469726562e+00,2.900000095367431641e+00,8.533033835078640550e-09,1.723938858333440294e-08,2.095209360122680664e+00,-1.692768186330795288e-02,-1.913841627538204193e-02
5.917000000000000000e+03,8.699999809265136719e+00,2.900000095367431641e+00,8.633044501493714051e-09,1.764973589502005780e-08,2.095193147659301758e+00,-1.686721295118331909e-02,-1.915290579199790955e-02
5.918000000000000000e+03,8.800000190734863281e+00,2.900000095367431641e+00,8.733056056087207253e-09,1.806484384303530533e-08,2.095180034637451172e+00,-1.681281439960002899e-02,-1.916603930294513702e-02
5.919000000000000000e+03,8.899999618530273438e+00,2.900000095367431641e+00,8.833064946145441354e-09,1.848470532195278793e-08,2.095170259475708008e+00,-1.676400192081928253e-02,-1.917724870145320892e-02
5.920000000000000000e+03,9.000000000000000000e+00,2.900000095367431641e+00,8.933073836203675455e-09,1.890932921355670260e-08,2.095162868499755859e+00,-1.672032102942466736e-02,-1.918740756809711456e-02
5.921000000000000000e+03,9.100000381469726562e+00,2.900000095367431641e+00,9.033081838083489856e-09,1.933871196513337054e-08,2.095157861709594727e+00,-1.668134145438671112e-02,-1.919610798358917236e-02
5.922000000000000000e+03,9.199999809265136719e+00,2.900000095367431641e+00,9.133088063606464857e-09,1.977284824761227355e-08,2.095154523849487305e+00,-1.664666272699832916e-02,-1.920347101986408234e-02
5.923000000000000000e+03,9.300000190734863281e+00,2.900000095367431641e+00,9.233095177307859558e-09,2.021174516642076924e-08,2.095153093338012695e+00,-1.661590859293937683e-02,-1.921016350388526917e-02
5.924000000000000000e+03,9.399999618530273438e+00,2.900000095367431641e+00,9.333100514652414859e-09,2.065539739248833939e-08,2.095153093338012695e+00,-1.658873073756694794e-02,-1.921555772423744202e-02
5.925000000000000000e+03,9.500000000000000000e+00,2.900000095367431641e+00,9.433107628353809559e-09,2.110381380759918102e-08,2.095154285430908203e+00,-1.656479947268962860e-02,-1.922048628330230713e-02
5.926000000000000000e+03,9.600000381469726562e+00,2.900000095367431641e+00,9.533112965698364860e-09,2.155698730632593652e-08,2.095156431198120117e+00,-1.654381677508354187e-02,-1.922448724508285522e-02
5.927000000000000000e+03,9.699999809265136719e+00,2.900000095367431641e+00,9.633118303042920161e-09,2.201491433595492708e-08,2.095159292221069336e+00,-1.652549766004085541e-02,-1.922764256596565247e-02
5.928000000000000000e+03,9.800000190734863281e+00,2.900000095367431641e+00,9.733124528565895162e-09,2.247760555462718912e-08,2.095162868499755859e+00,-1.650958508253097534e-02,-1.923057623207569122e-02
5.929000000000000000e+03,9.899999618530273438e+00,2.900000095367431641e+00,9.833128977732030762e-09,2.294505030420168623e-08,2.095167160034179688e+00,-1.649583876132965088e-02,-1.923262514173984528e-02
5.930000000000000000e+03,1.000000000000000000e+01,2.900000095367431641e+00,9.933135203255005763e-09,2.341725746646261541e-08,2.095171689987182617e+00,-1.648403890430927277e-02,-1.923458278179168701e-02
5.931000000000000000e+03,1.010000038146972656e+01,2.900000095367431641e+00,1.003314142877798076e-08,2.389422526505313726e-08,2.095176696777343750e+00,-1.647398248314857483e-02,-1.923595927655696869e-02
5.932000000000000000e+03,1.019999980926513672e+01,2.900000095367431641e+00,1.013314676612253606e-08,2.437594481818905479e-08,2.095181941986083984e+00,-1.646548509597778320e-02,-1.923678815364837646e-02
5.933000000000000000e+03,1.030000019073486328e+01,2.900000095367431641e+00,1.023315299164551107e-08,2.486243033672508318e-08,2.095187187194824219e+00,-1.645837351679801941e-02,-1.923769712448120117e-02
5.934000000000000000e+03,1.039999961853027344e+01,2.900000095367431641e+00,1.033315832899006637e-08,2.535366760980650724e-08,2.095192670822143555e+00,-1.645249314606189728e-02,-1.923795603215694427e-02
5.935000000000000000e+03,1.050000000000000000e+01,2.900000095367431641e+00,1.043316455451304137e-08,2.584967084828804218e-08,2.095198154449462891e+00,-1.644770428538322449e-02,-1.923837512731552124e-02
5.936000000000000000e+03,1.060000038146972656e+01,2.900000095367431641e+00,1.053317166821443607e-08,2.635043117038549099e-08,2.095203399658203125e+00,-1.644387654960155487e-02,-1.923840679228305817e-02
5.937000000000000000e+03,1.069999980926513672e+01,2.900000095367431641e+00,1.063317789373741107e-08,2.685594679974201426e-08,2.095208883285522461e+00,-1.644089259207248688e-02,-1.923808269202709198e-02
5.938000000000000000e+03,1.080000019073486328e+01,2.900000095367431641e+00,1.073318500743880577e-08,2.736622484178496961e-08,2.095213890075683594e+00,-1.643864810466766357e-02,-1.923800446093082428e-02
5.939000000000000000e+03,1.089999961853027344e+01,2.900000095367431641e+00,1.083319212114020047e-08,2.788125819108699943e-08,2.095219135284423828e+00,-1.643704622983932495e-02,-1.923742890357971191e-02
5.940000000000000000e+03,1.100000000000000000e+01,2.900000095367431641e+00,1.093319923484159517e-08,2.840105395307546132e-08,2.095224142074584961e+00,-1.643600314855575562e-02,-1.923714391887187958e-02
5.941000000000000000e+03,1.110000038146972656e+01,2.900000095367431641e+00,1.103320723672140957e-08,2.892561035139351588e-08,2.095228910446166992e+00,-1.643543690443038940e-02,-1.923659257590770721e-02
5.942000000000000000e+03,1.119999980926513672e+01,2.900000095367431641e+00,1.113321435042280427e-08,2.945492028061380552e-08,2.095233440399169922e+00,-1.643528044223785400e-02,-1.923578977584838867e-02
5.943000000000000000e+03,1.130000019073486328e+01,2.900000095367431641e+00,1.123322324048103837e-08,2.998899262252052722e-08,2.095237731933593750e+00,-1.643547229468822479e-02,-1.923532783985137939e-02
5.944000000000000000e+03,1.139999961853027344e+01,2.900000095367431641e+00,1.133323124236085278e-08,3.052782204804316279e-08,2.095242023468017578e+00,-1.643595471978187561e-02,-1.923445053398609161e-02
5.945000000000000000e+03,1.150000000000000000e+01,2.900000095367431641e+00,1.143323924424066718e-08,3.107141210989539104e-08,2.095246076583862305e+00,-1.643668115139007568e-02,-1.923393458127975464e-02
5.946000000000000000e+03,1.160000038146972656e+01,2.900000095367431641e+00,1.153324902247732098e-08,3.161976636079089076e-08,2.095249891281127930e+00,-1.643760688602924347e-02,-1.923321373760700226e-02
5.947000000000000000e+03,1.169999980926513672e+01,2.900000095367431641e+00,1.163325702435713538e-08,3.217287058987494675e-08,2.095253467559814453e+00,-1.643869094550609589e-02,-1.923229731619358063e-02
5.948000000000000000e+03,1.180000019073486328e+01,2.900000095367431641e+00,1.173326591441536948e-08,3.273073900800227420e-08,2.095256805419921875e+00,-1.643990352749824524e-02,-1.923176646232604980e-02
5.949000000000000000e+03,1.189999961853027344e+01,2.900000095367431641e+00,1.183327480447360358e-08,3.329336095703183673e-08,2.095259904861450195e+00,-1.644121110439300537e-02,-1.923085935413837433e-02
5.950000000000000000e+03,1.200000000000000000e+01,2.900000095367431641e+00,1.193328458271025738e-08,3.386075064781834953e-08,2.095263004302978516e+00,-1.644259132444858551e-02,-1.923034898936748505e-02
5.951000000000000000e+03,1.210000038146972656e+01,2.900000095367431641e+00,1.203329436094691118e-08,3.443289742222077621e-08,2.095265626907348633e+00,-1.644401811063289642e-02,-1.922966353595256805e-02
5.952000000000000000e+03,1.219999980926513672e+01,2.900000095367431641e+00,1.213330325100514528e-08,3.500979417481175915e-08,2.095268249511718750e+00,-1.644547469913959503e-02,-1.922880671918392181e-02
5.953000000000000000e+03,1.230000019073486328e+01,2.900000095367431641e+00,1.223331391742021879e-08,3.559146222187337116e-08,2.095270633697509766e+00,-1.644694246351718903e-02,-1.922835409641265869e-02
5.954000000000000000e+03,1.239999961853027344e+01,2.900000095367431641e+00,1.233332280747845289e-08,3.617788024712353945e-08,2.095273017883300781e+00,-1.644840836524963379e-02,-1.922754198312759399e-02
5.955000000000000000e+03,1.250000000000000000e+01,2.900000095367431641e+00,1.243333347389352639e-08,3.676906246141697920e-08,2.095275163650512695e+00,-1.644985936582088470e-02,-1.922713965177536011e-02
5.956000000000000000e+03,1.260000038146972656e+01,2.900000095367431641e+00,1.253334414030859989e-08,3.736500531204001163e-08,2.095277070999145508e+00,-1.645128801465034485e-02,-1.922656968235969543e-02
5.957000000000000000e+03,1.269999980926513672e+01,2.900000095367431641e+00,1.263335303036683399e-08,3.796569814085160033e-08,2.095278739929199219e+00,-1.645268313586711884e-02,-1.922583580017089844e-02
5.958000000000000000e+03,1.280000019073486328e+01,2.900000095367431641e+00,1.273336369678190749e-08,3.857115871142013930e-08,2.095280408859252930e+00,-1.645403914153575897e-02,-1.922551356256008148e-02
5.959000000000000000e+03,1.289999961853027344e+01,2.900000095367431641e+00,1.283337347501856129e-08,3.918137281289091334e-08,2.095281839370727539e+00,-1.645535044372081757e-02,-1.922483369708061218e-02
5.960000000000000000e+03,1.300000000000000000e+01,2.900000095367431641e+00,1.293338502961205450e-08,3.979635110340495885e-08,2.095283269882202148e+00,-1.645661517977714539e-02,-1.922456361353397369e-02
5.961000000000000000e+03,1.310000038146972656e+01,2.900000095367431641e+00,1.303339569602712800e-08,4.041609003024859703e-08,2.095284700393676758e+00,-1.645782589912414551e-02,-1.922412961721420288e-02
5.962000000000000000e+03,1.319999980926513672e+01,2.900000095367431641e+00,1.313340547426378180e-08,4.104057893528079148e-08,2.095285892486572266e+00,-1.645898260176181793e-02,-1.922352798283100128e-02
5.963000000000000000e+03,1.330000019073486328e+01,2.900000095367431641e+00,1.323341702885727500e-08,4.166983558206993621e-08,2.095286846160888672e+00,-1.646008342504501343e-02,-1.922333799302577972e-02
5.964000000000000000e+03,1.339999961853027344e+01,2.900000095367431641e+00,1.333342680709392880e-08,4.230384575976131600e-08,2.095287799835205078e+00,-1.646112650632858276e-02,-1.922278665006160736e-02
5.965000000000000000e+03,1.350000000000000000e+01,2.900000095367431641e+00,1.343343836168742200e-08,4.294262012649596727e-08,2.095288753509521484e+00,-1.646211370825767517e-02,-1.922264508903026581e-02
5.966000000000000000e+03,1.360000038146972656e+01,2.900000095367431641e+00,1.353344991628091520e-08,4.358615157684653241e-08,2.095289468765258789e+00,-1.646304316818714142e-02,-1.922233402729034424e-02
5.967000000000000000e+03,1.369999980926513672e+01,2.900000095367431641e+00,1.363345969451756901e-08,4.423443655809933261e-08,2.095290184020996094e+00,-1.646391488611698151e-02,-1.922185532748699188e-02
5.968000000000000000e+03,1.380000019073486328e+01,2.900000095367431641e+00,1.373347124911106221e-08,4.488748928110908309e-08,2.095290899276733398e+00,-1.646473258733749390e-02,-1.922178082168102264e-02
5.969000000000000000e+03,1.389999961853027344e+01,2.900000095367431641e+00,1.383348191552613571e-08,4.554529198230738984e-08,2.095291614532470703e+00,-1.646549254655838013e-02,-1.922134496271610260e-02
5.970000000000000000e+03,1.400000000000000000e+01,2.900000095367431641e+00,1.393349347011962891e-08,4.620786242526264687e-08,2.095292091369628906e+00,-1.646619848906993866e-02,-1.922131516039371490e-02
5.971000000000000000e+03,1.410000038146972656e+01,2.900000095367431641e+00,1.403350502471312211e-08,4.687519350454749656e-08,2.095292568206787109e+00,-1.646685227751731873e-02,-1.922111585736274719e-02
5.972000000000000000e+03,1.419999980926513672e+01,2.900000095367431641e+00,1.413351480294977591e-08,4.754727456202090252e-08,2.095293045043945312e+00,-1.646745204925537109e-02,-1.922074519097805023e-02
5.973000000000000000e+03,1.430000019073486328e+01,2.900000095367431641e+00,1.423352635754326911e-08,4.822411980853757996e-08,2.095293283462524414e+00,-1.646799966692924500e-02,-1.922078058123588562e-02
5.974000000000000000e+03,1.439999961853027344e+01,2.900000095367431641e+00,1.433353702395834262e-08,4.890571858595649246e-08,2.095293521881103516e+00,-1.646849513053894043e-02,-1.922045648097991943e-02
5.975000000000000000e+03,1.450000000000000000e+01,2.900000095367431641e+00,1.443354857855183582e-08,4.959208510513235524e-08,2.095293998718261719e+00,-1.646894030272960663e-02,-1.922054030001163483e-02
5.976000000000000000e+03,1.460000038146972656e+01,2.900000095367431641e+00,1.453356013314532902e-08,5.028320870792413189e-08,2.095294237136840820e+00,-1.646933332085609436e-02,-1.922045648097991943e-02
5.977000000000000000e+03,1.469999980926513672e+01,2.900000095367431641e+00,1.463357079956040252e-08,5.097908584161814360e-08,2.095294237136840820e+00,-1.646967604756355286e-02,-1.922021061182022095e-02
5.978000000000000000e+03,1.480000019073486328e+01,2.900000095367431641e+00,1.473358235415389572e-08,5.167972716435542679e-08,2.095294475555419922e+00,-1.646996662020683289e-02,-1.922038011252880096e-02
5.979000000000000000e+03,1.489999961853027344e+01,2.900000095367431641e+00,1.483359302056896922e-08,5.238512201799494505e-08,2.095294713973999023e+00,-1.647020503878593445e-02,-1.922019943594932556e-02
5.980000000000000000e+03,1.500000000000000000e+01,2.900000095367431641e+00,1.493360457516246242e-08,5.309528461339141359e-08,2.095294713973999023e+00,-1.647038757801055908e-02,-1.922044344246387482e-02
5.981000000000000000e+03,1.510000038146972656e+01,2.900000095367431641e+00,1.503361701793437533e-08,5.381020429240379599e-08,2.095294713973999023e+00,-1.647051237523555756e-02,-1.922054030001163483e-02
5.982000000000000000e+03,1.519999980926513672e+01,2.900000095367431641e+00,1.513362768434944883e-08,5.452987750231841346e-08,2.095294713973999023e+00,-1.647057943046092987e-02,-1.922049745917320251e-02
5.983000000000000000e+03,1.530000019073486328e+01,2.900000095367431641e+00,1.523363835076452233e-08,5.525431490127630241e-08,2.095294713973999023e+00,-1.647058129310607910e-02,-1.922089979052543640e-02
5.984000000000000000e+03,1.539999961853027344e+01,2.900000095367431641e+00,1.533364901717959583e-08,5.598350227842274762e-08,2.095294475555419922e+00,-1.647051423788070679e-02,-1.922098733484745026e-02
5.985000000000000000e+03,1.550000000000000000e+01,2.900000095367431641e+00,1.543366145995150873e-08,5.671746095003982191e-08,2.095294237136840820e+00,-1.647037453949451447e-02,-1.922154054045677185e-02
5.986000000000000000e+03,1.560000038146972656e+01,2.900000095367431641e+00,1.553367212636658223e-08,5.745617670527281007e-08,2.095293998718261719e+00,-1.647015474736690521e-02,-1.922199688851833344e-02
5.987000000000000000e+03,1.569999980926513672e+01,2.900000095367431641e+00,1.563368279278165573e-08,5.819964243869435450e-08,2.095293760299682617e+00,-1.646984554827213287e-02,-1.922237128019332886e-02
5.988000000000000000e+03,1.580000019073486328e+01,2.900000095367431641e+00,1.573369523555356864e-08,5.894787591387284920e-08,2.095293283462524414e+00,-1.646943949162960052e-02,-1.922325789928436279e-02
5.989000000000000000e+03,1.589999961853027344e+01,2.900000095367431641e+00,1.583370590196864214e-08,5.970085936723990017e-08,2.095292806625366211e+00,-1.646892912685871124e-02,-1.922391168773174286e-02
5.990000000000000000e+03,1.600000000000000000e+01,2.900000095367431641e+00,1.593371656838371564e-08,6.045861056236390141e-08,2.095292091369628906e+00,-1.646829955279827118e-02,-1.922512426972389221e-02
5.991000000000000000e+03,1.610000038146972656e+01,2.900000095367431641e+00,1.603372723479878914e-08,6.122112239381749532e-08,2.095291376113891602e+00,-1.646753959357738495e-02,-1.922634616494178772e-02
5.992000000000000000e+03,1.620000076293945312e+01,2.900000095367431641e+00,1.613373967757070204e-08,6.198838775617332431e-08,2.095290422439575195e+00,-1.646663434803485870e-02,-1.922780275344848633e-02
5.993000000000000000e+03,1.629999923706054688e+01,2.900000095367431641e+00,1.623374856762893614e-08,6.276040664943138836e-08,2.095289230346679688e+00,-1.646557264029979706e-02,-1.922914572060108185e-02
5.994000000000000000e+03,1.639999961853027344e+01,2.900000095367431641e+00,1.633375923404400965e-08,6.353719328444640269e-08,2.095287799835205078e+00,-1.646433584392070770e-02,-1.923156715929508209e-02
5.995000000000000000e+03,1.650000000000000000e+01,2.900000095367431641e+00,1.643377167681592255e-08,6.431874055579100968e-08,2.095286130905151367e+00,-1.646290719509124756e-02,-1.923396065831184387e-02
5.996000000000000000e+03,1.660000038146972656e+01,2.900000095367431641e+00,1.653378234323099605e-08,6.510504135803785175e-08,2.095284223556518555e+00,-1.646127179265022278e-02,-1.923676393926143646e-02
5.997000000000000000e+03,1.670000076293945312e+01,2.900000095367431641e+00,1.663379300964606955e-08,6.589610990204164409e-08,2.095282077789306641e+00,-1.645941287279129028e-02,-1.924002915620803833e-02
5.998000000000000000e+03,1.679999923706054688e+01,2.900000095367431641e+00,1.673380189970430365e-08,6.669191066066559870e-08,2.095279455184936523e+00,-1.645731180906295776e-02,-1.924343779683113098e-02
5.999000000000000000e+03,1.689999961853027344e+01,2.900000095367431641e+00,1.683381256611937715e-08,6.749249337190121878e-08,2.095276355743408203e+00,-1.645495556294918060e-02,-1.924821175634860992e-02
6.000000000000000000e+03,1.700000000000000000e+01,2.900000095367431641e+00,1.693382323253445065e-08,6.829783671946643153e-08,2.095273017883300781e+00,-1.645233109593391418e-02,-1.925327070057392120e-02
6.001000000000000000e+03,1.710000038146972656e+01,2.900000095367431641e+00,1.703383212259268475e-08,6.910793359793387935e-08,2.095268964767456055e+00,-1.644943468272686005e-02,-1.925907656550407410e-02
6.002000000000000000e+03,1.720000076293945312e+01,2.900000095367431641e+00,1.713384278900775826e-08,6.992279111273091985e-08,2.095264196395874023e+00,-1.644626073539257050e-02,-1.926571503281593323e-02
6.003000000000000000e+03,1.729999923706054688e+01,2.900000095367431641e+00,1.723384990270915296e-08,7.074239505300283781e-08,2.095258951187133789e+00,-1.644281670451164246e-02,-1.927288807928562164e-02
6.004000000000000000e+03,1.739999961853027344e+01,2.900000095367431641e+00,1.733385879276738706e-08,7.156676673503170605e-08,2.095252990722656250e+00,-1.643911935389041901e-02,-1.928183808922767639e-02
6.005000000000000000e+03,1.750000000000000000e+01,2.900000095367431641e+00,1.743386768282562116e-08,7.239589905339016696e-08,2.095246315002441406e+00,-1.643520034849643707e-02,-1.929149776697158813e-02
6.006000000000000000e+03,1.760000038146972656e+01,2.900000095367431641e+00,1.753387657288385526e-08,7.322979200807822053e-08,2.095238685607910156e+00,-1.643110997974872589e-02,-1.930233649909496307e-02
6.007000000000000000e+03,1.770000076293945312e+01,2.900000095367431641e+00,1.763388368658524996e-08,7.406844559909586678e-08,2.095230340957641602e+00,-1.642691530287265778e-02,-1.931442879140377045e-02
6.008000000000000000e+03,1.779999923706054688e+01,2.900000095367431641e+00,1.773388902392980526e-08,7.491183851016103290e-08,2.095221042633056641e+00,-1.642271503806114197e-02,-1.932744868099689484e-02
6.009000000000000000e+03,1.789999961853027344e+01,2.900000095367431641e+00,1.783389613763119996e-08,7.576000626841050689e-08,2.095210790634155273e+00,-1.641863584518432617e-02,-1.934259384870529175e-02
6.010000000000000000e+03,1.800000000000000000e+01,2.900000095367431641e+00,1.793390325133259466e-08,7.661292755756221595e-08,2.095199584960937500e+00,-1.641483977437019348e-02,-1.935871690511703491e-02
6.011000000000000000e+03,1.810000038146972656e+01,2.900000095367431641e+00,1.803390858867714996e-08,7.747061658847087529e-08,2.095187664031982422e+00,-1.641153171658515930e-02,-1.937617175281047821e-02
6.012000000000000000e+03,1.820000076293945312e+01,2.900000095367431641e+00,1.813391392602170527e-08,7.833305915028176969e-08,2.095174789428710938e+00,-1.640895195305347443e-02,-1.939487643539905548e-02
6.013000000000000000e+03,1.829999923706054688e+01,2.900000095367431641e+00,1.823391571065258177e-08,7.920024103214018396e-08,2.095161437988281250e+00,-1.640739291906356812e-02,-1.941429823637008667e-02
6.014000000000000000e+03,1.839999961853027344e+01,2.900000095367431641e+00,1.833391927164029767e-08,8.007219776118290611e-08,2.095147371292114258e+00,-1.640718802809715271e-02,-1.943535543978214264e-02
6.015000000000000000e+03,1.850000000000000000e+01,2.900000095367431641e+00,1.843392283262801357e-08,8.094891512655522092e-08,2.095133304595947266e+00,-1.640870422124862671e-02,-1.945656910538673401e-02
6.016000000000000000e+03,1.860000038146972656e+01,2.900000095367431641e+00,1.853392461725889007e-08,8.183039312825712841e-08,2.095118999481201172e+00,-1.641234382987022400e-02,-1.947787404060363770e-02
6.017000000000000000e+03,1.870000076293945312e+01,2.900000095367431641e+00,1.863392640188976657e-08,8.271663176628862857e-08,2.095104932785034180e+00,-1.641852036118507385e-02,-1.949869655072689056e-02
6.018000000000000000e+03,1.879999923706054688e+01,2.900000095367431641e+00,1.873392641016380367e-08,8.360760972436764860e-08,2.095091581344604492e+00,-1.642763800919055939e-02,-1.951793581247329712e-02
6.019000000000000000e+03,1.889999961853027344e+01,2.900000095367431641e+00,1.883392819479468017e-08,8.450336252963097650e-08,2.095079421997070312e+00,-1.644006744027137756e-02,-1.953588239848613739e-02
6.020000000000000000e+03,1.900000000000000000e+01,2.900000095367431641e+00,1.893392820306871727e-08,8.540387597122389707e-08,2.095068454742431641e+00,-1.645611226558685303e-02,-1.955037377774715424e-02
6.021000000000000000e+03,1.910000038146972656e+01,2.900000095367431641e+00,1.903392821134275437e-08,8.630915004914641031e-08,2.095059394836425781e+00,-1.647596247494220734e-02,-1.956065557897090912e-02
6.022000000000000000e+03,1.920000076293945312e+01,2.900000095367431641e+00,1.913392999597363087e-08,8.721918476339851622e-08,2.095052242279052734e+00,-1.649967022240161896e-02,-1.956549100577831268e-02
6.023000000000000000e+03,1.929999923706054688e+01,2.900000095367431641e+00,1.923392822789082857e-08,8.813396590312549961e-08,2.095047473907470703e+00,-1.652710512280464172e-02,-1.956320554018020630e-02
6.024000000000000000e+03,1.939999961853027344e+01,2.900000095367431641e+00,1.933392823616486567e-08,8.905352899546414847e-08,2.095045089721679688e+00,-1.655793376266956329e-02,-1.955366320908069611e-02
6.025000000000000000e+03,1.950000000000000000e+01,2.900000095367431641e+00,1.943393002079574217e-08,8.997785272413238999e-08,2.095044851303100586e+00,-1.659160666167736053e-02,-1.953450590372085571e-02
6.026000000000000000e+03,1.960000038146972656e+01,2.900000095367431641e+00,1.953393180542661867e-08,9.090694419455758180e-08,2.095046520233154297e+00,-1.662736944854259491e-02,-1.950507611036300659e-02
6.027000000000000000e+03,1.970000076293945312e+01,2.900000095367431641e+00,1.963393536641433457e-08,9.184080340673972387e-08,2.095049858093261719e+00,-1.666429266333580017e-02,-1.946458034217357635e-02
6.028000000000000000e+03,1.979999923706054688e+01,2.900000095367431641e+00,1.973393715104521107e-08,9.277940904439674341e-08,2.095053911209106445e+00,-1.670132763683795929e-02,-1.941216550767421722e-02
6.029000000000000000e+03,1.989999961853027344e+01,2.900000095367431641e+00,1.983394071203292697e-08,9.372280374009278603e-08,2.095058202743530273e+00,-1.673735491931438446e-02,-1.934888213872909546e-02
6.030000000000000000e+03,2.000000000000000000e+01,2.900000095367431641e+00,1.993394604937748227e-08,9.467096617754577892e-08,2.095061779022216797e+00,-1.677127741277217865e-02,-1.927387155592441559e-02
6.031000000000000000e+03,0.000000000000000000e+00,3.000000000000000000e+00,8.045406595283718782e-38,1.493859833087328538e-38,1.882534384727478027e+00,5.647603273391723633e-01,-2.210318595170974731e-01
6.032000000000000000e+03,1.000000014901161194e-01,3.000000000000000000e+00,8.157649555862178659e-11,-2.736585090479248805e-11,1.871855616569519043e+00,5.291643142700195312e-01,-2.535796463489532471e-01
6.033000000000000000e+03,2.000000029802322388e-01,3.000000000000000000e+00,1.641200370050555080e-10,-4.751494336874273472e-11,1.883368372917175293e+00,4.998470842838287354e-01,-2.284343093633651733e-01
6.034000000000000000e+03,3.000000119209289551e-01,3.000000000000000000e+00,2.476364113768170228e-10,-6.062584462229736459e-11,1.894932866096496582e+00,4.702960848808288574e-01,-2.053061723709106445e-01
6.035000000000000000e+03,4.000000059604644775e-01,3.000000000000000000e+00,3.321265484856894545e-10,-6.686792092258642128e-11,1.906488299369812012e+00,4.406516551971435547e-01,-1.840946823358535767e-01
6.036000000000000000e+03,5.000000000000000000e-01,3.000000000000000000e+00,4.175854384502741823e-10,-6.640066968488511634e-11,1.917958378791809082e+00,4.110728502273559570e-01,-1.646907478570938110e-01
6.037000000000000000e+03,6.000000238418579102e-01,3.000000000000000000e+00,5.040014516843882575e-10,-5.937352692830799583e-11,1.929255604743957520e+00,3.817307949066162109e-01,-1.469818502664566040e-01
6.038000000000000000e+03,6.999999880790710449e-01,3.000000000000000000e+00,5.913560197079448244e-10,-4.592602340092177826e-11,1.940286397933959961e+00,3.528014719486236572e-01,-1.308560073375701904e-01
6.039000000000000000e+03,8.000000119209289551e-01,3.000000000000000000e+00,6.796235241246506575e-10,-2.618815407584573762e-11,1.950955629348754883e+00,3.244586288928985596e-01,-1.162047609686851501e-01
6.040000000000000000e+03,8.999999761581420898e-01,3.000000000000000000e+00,7.687717129556403961e-10,-2.809986401550168544e-13,1.961172699928283691e+00,2.968673408031463623e-01,-1.029248386621475220e-01
6.041000000000000000e+03,1.000000000000000000e+00,3.000000000000000000e+00,8.587622835065644722e-10,3.168273629561291216e-11,1.970854640007019043e+00,2.701784074306488037e-01,-9.091907739639282227e-02
6.042000000000000000e+03,1.100000023841857910e+00,3.000000000000000000e+00,9.495515485014038859e-10,6.959798015682139294e-11,1.979930758476257324e+00,2.445243895053863525e-01,-8.009636402130126953e-02
6.043000000000000000e+03,1.200000047683715820e+00,3.000000000000000000e+00,1.041091546305494830e-09,1.133667812402983088e-10,1.988344192504882812e+00,2.200165987014770508e-01,-7.037138938903808594e-02
6.044000000000000000e+03,1.299999952316284180e+00,3.000000000000000000e+00,1.133330984615099624e-09,1.628976675771554028e-10,1.996053099632263184e+00,1.967437714338302612e-01,-6.166390702128410339e-02
6.045000000000000000e+03,1.399999976158142090e+00,3.000000000000000000e+00,1.226216683747338720e-09,2.181054781225100214e-10,2.003031492233276367e+00,1.747715920209884644e-01,-5.389824137091636658e-02
6.046000000000000000e+03,1.500000000000000000e+00,3.000000000000000000e+00,1.319694020729400563e-09,2.789105890688148293e-10,2.009267568588256836e+00,1.541435867547988892e-01,-4.700242727994918823e-02
6.047000000000000000e+03,1.600000023841857910e+00,3.000000000000000000e+00,1.413708261566171132e-09,3.452388652736004815e-10,2.014763593673706055e+00,1.348823010921478271e-01,-4.090803116559982300e-02
6.048000000000000000e+03,1.700000047683715820e+00,3.000000000000000000e+00,1.508205338396351181e-09,4.170212786203109090e-10,2.019533872604370117e+00,1.169913709163665771e-01,-3.554971143603324890e-02
6.049000000000000000e+03,1.799999952316284180e+00,3.000000000000000000e+00,1.603132071537061165e-09,4.941936304625471621e-10,2.023602247238159180e+00,1.004576981067657471e-01,-3.086506202816963196e-02
6.050000000000000000e+03,1.899999976158142090e+00,3.000000000000000000e+00,1.698438167885285566e-09,5.766966904019454887e-10,2.027001380920410156e+00,8.525381982326507568e-02,-2.679470553994178772e-02
6.051000000000000000e+03,2.000000000000000000e+00,3.000000000000000000e+00,1.794074666605638413e-09,6.644753081097576342e-10,2.029770135879516602e+00,7.134042680263519287e-02,-2.328207902610301971e-02
6.052000000000000000e+03,2.099999904632568359e+00,3.000000000000000000e+00,1.889996159576412538e-09,7.574786353714557663e-10,2.031951427459716797e+00,5.866865068674087524e-02,-2.027373947203159332e-02
6.053000000000000000e+03,2.200000047683715820e+00,3.000000000000000000e+00,1.986159903211159872e-09,8.556603203757617848e-10,2.033592224121093750e+00,4.718214645981788635e-02,-1.771945133805274963e-02
6.054000000000000000e+03,2.299999952316284180e+00,3.000000000000000000e+00,2.082526151525598834e-09,9.589770089135640774e-10,2.034739971160888672e+00,3.681929782032966614e-02,-1.557191088795661926e-02
6.055000000000000000e+03,2.400000095367431641e+00,3.000000000000000000e+00,2.179059155338336495e-09,1.067389954201303226e-09,2.035443544387817383e+00,2.751471474766731262e-02,-1.378741487860679626e-02
6.056000000000000000e+03,2.500000000000000000e+00,3.000000000000000000e+00,2.275725385914029175e-09,1.180862629901469063e-09,2.035750627517700195e+00,1.920099928975105286e-02,-1.232510525733232498e-02
6.057000000000000000e+03,2.599999904632568359e+00,3.000000000000000000e+00,2.372494867231011995e-09,1.299362617501742534e-09,2.035707950592041016e+00,1.180986873805522919e-02,-1.114767696708440781e-02
6.058000000000000000e+03,2.700000047683715820e+00,3.000000000000000000e+00,2.469341620070508725e-09,1.422860496091971072e-09,2.035360097885131836e+00,5.273316986858844757e-03,-1.022080425173044205e-02
6.059000000000000000e+03,2.799999952316284180e+00,3.000000000000000000e+00,2.566241219525977613e-09,1.551328732141143973e-09,2.034749269485473633e+00,-4.754523979499936104e-04,-9.513052180409431458e-03
6.060000000000000000e+03,2.900000095367431641e+00,3.000000000000000000e+00,2.663173015449160630e-09,1.684743233809626872e-09,2.033915281295776367e+00,-5.501442588865756989e-03,-8.996224962174892426e-03
6.061000000000000000e+03,3.000000000000000000e+00,3.000000000000000000e+00,2.760118356093244074e-09,1.823081352547717415e-09,2.032894849777221680e+00,-9.867195039987564087e-03,-8.644482120871543884e-03
6.062000000000000000e+03,3.099999904632568359e+00,3.000000000000000000e+00,2.857061698335883193e-09,1.966323548430182200e-09,2.031721591949462891e+00,-1.363248098641633987e-02,-8.434906601905822754e-03
6.063000000000000000e+03,3.200000047683715820e+00,3.000000000000000000e+00,2.953989497456177560e-09,2.114451946866324761e-09,2.030426263809204102e+00,-1.685396954417228699e-02,-8.346838876605033875e-03
6.064000000000000000e+03,3.299999952316284180e+00,3.000000000000000000e+00,3.050889985090066148e-09,2.267450005533078183e-09,2.029036521911621094e+00,-1.958502456545829773e-02,-8.361698128283023834e-03
6.065000000000000000e+03,3.400000095367431641e+00,3.000000000000000000e+00,3.147754057408747030e-09,2.425303735620332191e-09,2.027577161788940430e+00,-2.187566086649894714e-02,-8.463295176625251770e-03
6.066000000000000000e+03,3.500000000000000000e+00,3.000000000000000000e+00,3.244573054672628132e-09,2.587999370362581431e-09,2.026070117950439453e+00,-2.377245016396045685e-02,-8.636923506855964661e-03
6.067000000000000000e+03,3.599999904632568359e+00,3.000000000000000000e+00,3.341341203721981401e-09,2.755525585484974727e-09,2.024534940719604492e+00,-2.531858533620834351e-02,-8.869923651218414307e-03
6.068000000000000000e+03,3.700000047683715820e+00,3.000000000000000000e+00,3.438053397530893562e-09,2.927872611024895377e-09,2.022988319396972656e+00,-2.655393816530704498e-02,-9.151035919785499573e-03
6.069000000000000000e+03,3.799999952316284180e+00,3.000000000000000000e+00,3.534705639296475965e-09,3.105030454975121756e-09,2.021444797515869141e+00,-2.751513756811618805e-02,-9.470251388847827911e-03
6.070000000000000000e+03,3.900000095367431641e+00,3.000000000000000000e+00,3.631295708572679359e-09,3.286991567819086413e-09,2.019917011260986328e+00,-2.823572419583797455e-02,-9.819158352911472321e-03
6.071000000000000000e+03,4.000000000000000000e+00,3.000000000000000000e+00,3.727821162868849569e-09,3.473747733906407120e-09,2.018415212631225586e+00,-2.874627895653247833e-02,-1.019008178263902664e-02
6.072000000000000000e+03,4.099999904632568359e+00,3.000000000000000000e+00,3.824281780140381670e-09,3.665292958032750903e-09,2.016948223114013672e+00,-2.907458133995532990e-02,-1.057669427245855331e-02
6.073000000000000000e+03,4.199999809265136719e+00,3.000000000000000000e+00,3.920676672208855962e-09,3.861622133172204485e-09,2.015523195266723633e+00,-2.924577333033084869e-02,-1.097337901592254639e-02
6.074000000000000000e+03,4.300000190734863281e+00,3.000000000000000000e+00,4.017007171341901994e-09,4.062730152298854591e-09,2.014146089553833008e+00,-2.928252704441547394e-02,-1.137545052915811539e-02
6.075000000000000000e+03,4.400000095367431641e+00,3.000000000000000000e+00,4.113272833450309918e-09,4.268611686342183020e-09,2.012820959091186523e+00,-2.920521795749664307e-02,-1.177857257425785065e-02
6.076000000000000000e+03,4.500000000000000000e+00,3.000000000000000000e+00,4.209475434890919132e-09,4.479263626677720822e-09,2.011551618576049805e+00,-2.903207950294017792e-02,-1.217958703637123108e-02
6.077000000000000000e+03,4.599999904632568359e+00,3.000000000000000000e+00,4.305617196109778888e-09,4.694682420591789196e-09,2.010339736938476562e+00,-2.877937443554401398e-02,-1.257552858442068100e-02
6.078000000000000000e+03,4.699999809265136719e+00,3.000000000000000000e+00,4.401699005285308886e-09,4.914865403549129041e-09,2.009187459945678711e+00,-2.846155129373073578e-02,-1.296401210129261017e-02
6.079000000000000000e+03,4.800000190734863281e+00,3.000000000000000000e+00,4.497724415131187925e-09,5.139811243282110809e-09,2.008095264434814453e+00,-2.809138782322406769e-02,-1.334317121654748917e-02
6.080000000000000000e+03,4.900000095367431641e+00,3.000000000000000000e+00,4.593694313825835707e-09,5.369515498898635997e-09,2.007063150405883789e+00,-2.768014557659626007e-02,-1.371115818619728088e-02
6.081000000000000000e+03,5.000000000000000000e+00,3.000000000000000000e+00,4.689611365904511331e-09,5.603977282220284906e-09,2.006090879440307617e+00,-2.723769098520278931e-02,-1.406699884682893753e-02
6.082000000000000000e+03,5.099999904632568359e+00,3.000000000000000000e+00,4.785478235902473898e-09,5.843195705068637835e-09,2.005177497863769531e+00,-2.677263692021369934e-02,-1.440965197980403900e-02
6.083000000000000000e+03,5.199999809265136719e+00,3.000000000000000000e+00,4.881298032444192359e-09,6.087168546997645535e-09,2.004321813583374023e+00,-2.629245072603225708e-02,-1.473841350525617599e-02
6.084000000000000000e+03,5.300000190734863281e+00,3.000000000000000000e+00,4.977072531886506113e-09,6.335897140274937556e-09,2.003522157669067383e+00,-2.580356970429420471e-02,-1.505288388580083847e-02
6.085000000000000000e+03,5.400000095367431641e+00,3.000000000000000000e+00,5.072804398764674261e-09,6.589377488097625246e-09,2.002776622772216797e+00,-2.531151473522186279e-02,-1.535249222069978714e-02
6.086000000000000000e+03,5.500000000000000000e+00,3.000000000000000000e+00,5.168496297613955903e-09,6.847610034554918457e-09,2.002083301544189453e+00,-2.482096664607524872e-02,-1.563737168908119202e-02
6.087000000000000000e+03,5.599999904632568359e+00,3.000000000000000000e+00,5.264150448880400290e-09,7.110594779646817187e-09,2.001440286636352539e+00,-2.433587051928043365e-02,-1.590743474662303925e-02
6.088000000000000000e+03,5.699999809265136719e+00,3.000000000000000000e+00,5.359769517099266523e-09,7.378331279284111588e-09,2.000844955444335938e+00,-2.385950647294521332e-02,-1.616279594600200653e-02
6.089000000000000000e+03,5.800000190734863281e+00,3.000000000000000000e+00,5.455356166805813700e-09,7.650820421645221359e-09,2.000295162200927734e+00,-2.339456975460052490e-02,-1.640375517308712006e-02
6.090000000000000000e+03,5.900000095367431641e+00,3.000000000000000000e+00,5.550912174356881224e-09,7.928059098105677549e-09,1.999788761138916016e+00,-2.294324524700641632e-02,-1.663033850491046906e-02
6.091000000000000000e+03,6.000000000000000000e+00,3.000000000000000000e+00,5.646439316109308493e-09,8.210049529111529409e-09,1.999323010444641113e+00,-2.250725217163562775e-02,-1.684317179024219513e-02
6.092000000000000000e+03,6.099999904632568359e+00,3.000000000000000000e+00,5.741940256598354608e-09,8.496789938305937540e-09,1.998895645141601562e+00,-2.208791114389896393e-02,-1.704258657991886139e-02
6.093000000000000000e+03,6.199999809265136719e+00,3.000000000000000000e+00,5.837416772180858970e-09,8.788282990224161040e-09,1.998504519462585449e+00,-2.168620005249977112e-02,-1.722903549671173096e-02
6.094000000000000000e+03,6.300000190734863281e+00,3.000000000000000000e+00,5.932871527392080679e-09,9.084527796687780210e-09,1.998147249221801758e+00,-2.130278572440147400e-02,-1.740309782326221466e-02
6.095000000000000000e+03,6.400000095367431641e+00,3.000000000000000000e+00,6.028304966321229585e-09,9.385522581339955650e-09,1.997821688652038574e+00,-2.093808539211750031e-02,-1.756501197814941406e-02
6.096000000000000000e+03,6.500000000000000000e+00,3.000000000000000000e+00,6.123719309414354939e-09,9.691269120537526760e-09,1.997525691986083984e+00,-2.059227973222732544e-02,-1.771558076143264771e-02
6.097000000000000000e+03,6.599999904632568359e+00,3.000000000000000000e+00,6.219115888939086290e-09,1.000176830245891324e-08,1.997257232666015625e+00,-2.026536688208580017e-02,-1.785525307059288025e-02
6.098000000000000000e+03,6.699999809265136719e+00,3.000000000000000000e+00,6.314496925341472888e-09,1.031701923892569539e-08,1.997014164924621582e+00,-1.995718292891979218e-02,-1.798457466065883636e-02
6.099000000000000000e+03,6.800000190734863281e+00,3.000000000000000000e+00,6.409863750889144285e-09,1.063702370629471261e-08,1.996794700622558594e+00,-1.966742798686027527e-02,-1.810417138040065765e-02
6.100000000000000000e+03,6.900000095367431641e+00,3.000000000000000000e+00,6.505216809671310330e-09,1.096177992820912550e-08,1.996597051620483398e+00,-1.939569413661956787e-02,-1.821431331336498260e-02
6.101000000000000000e+03,7.000000000000000000e+00,3.000000000000000000e+00,6.600557878044810423e-09,1.129128879284735376e-08,1.996419668197631836e+00,-1.914148032665252686e-02,-1.831579953432083130e-02
6.102000000000000000e+03,7.099999904632568359e+00,3.000000000000000000e+00,6.695887844188064264e-09,1.162555118838781709e-08,1.996260643005371094e+00,-1.890421845018863678e-02,-1.840906031429767609e-02
6.103000000000000000e+03,7.199999809265136719e+00,3.000000000000000000e+00,6.791208040368701404e-09,1.196456711483051549e-08,1.996118664741516113e+00,-1.868327893316745758e-02,-1.849460043013095856e-02
6.104000000000000000e+03,7.300000190734863281e+00,3.000000000000000000e+00,6.886519354765141543e-09,1.230833923671070806e-08,1.995992183685302734e+00,-1.847799681127071381e-02,-1.857299916446208954e-02
6.105000000000000000e+03,7.400000095367431641e+00,3.000000000000000000e+00,6.981822675555804381e-09,1.265686311313629631e-08,1.995879888534545898e+00,-1.828767731785774231e-02,-1.864445582032203674e-02
6.106000000000000000e+03,7.500000000000000000e+00,3.000000000000000000e+00,7.077118446829899767e-09,1.301014140864253932e-08,1.995780587196350098e+00,-1.811160147190093994e-02,-1.870969869196414948e-02
6.107000000000000000e+03,7.599999904632568359e+00,3.000000000000000000e+00,7.172407556765847403e-09,1.336817501140785680e-08,1.995693087577819824e+00,-1.794904656708240509e-02,-1.876907609403133392e-02
6.108000000000000000e+03,7.699999809265136719e+00,3.000000000000000000e+00,7.267691337631276838e-09,1.373096303325382905e-08,1.995616316795349121e+00,-1.779928617179393768e-02,-1.882300339639186859e-02
6.109000000000000000e+03,7.800000190734863281e+00,3.000000000000000000e+00,7.362970233515397922e-09,1.409850813871571518e-08,1.995549201965332031e+00,-1.766159571707248688e-02,-1.887196674942970276e-02
6.110000000000000000e+03,7.900000095367431641e+00,3.000000000000000000e+00,7.458243800329000806e-09,1.447080766325825607e-08,1.995490908622741699e+00,-1.753526739776134491e-02,-1.891607232391834259e-02
6.111000000000000000e+03,8.000000000000000000e+00,3.000000000000000000e+00,7.553513370339715038e-09,1.484786249505987143e-08,1.995440363883972168e+00,-1.741959899663925171e-02,-1.895594783127307892e-02
6.112000000000000000e+03,8.100000381469726562e+00,3.000000000000000000e+00,7.648780275815170171e-09,1.522967529865582037e-08,1.995397090911865234e+00,-1.731391064822673798e-02,-1.899193413555622101e-02
6.113000000000000000e+03,8.199999809265136719e+00,3.000000000000000000e+00,7.744042740398526803e-09,1.561624074497558468e-08,1.995360016822814941e+00,-1.721754856407642365e-02,-1.902398280799388885e-02
6.114000000000000000e+03,8.300000190734863281e+00,3.000000000000000000e+00,7.839303428625044035e-09,1.600756682762494165e-08,1.995328783988952637e+00,-1.712987571954727173e-02,-1.905303262174129486e-02
6.115000000000000000e+03,8.399999618530273438e+00,3.000000000000000000e+00,7.934560564137882466e-09,1.640364466481969430e-08,1.995302438735961914e+00,-1.705028116703033447e-02,-1.907863281667232513e-02
6.116000000000000000e+03,8.500000000000000000e+00,3.000000000000000000e+00,8.029816811472301197e-09,1.680448313834403962e-08,1.995280742645263672e+00,-1.697818189859390259e-02,-1.910177804529666901e-02
6.117000000000000000e+03,8.600000381469726562e+00,3.000000000000000000e+00,8.125071282449880528e-09,1.721008047184113821e-08,1.995262980461120605e+00,-1.691302284598350525e-02,-1.912216655910015106e-02
6.118000000000000000e+03,8.699999809265136719e+00,3.000000000000000000e+00,8.220323977070620458e-09,1.762042955988363246e-08,1.995248794555664062e+00,-1.685427688062191010e-02,-1.914002560079097748e-02
6.119000000000000000e+03,8.800000190734863281e+00,3.000000000000000000e+00,8.315575783512940689e-09,1.803554106061255879e-08,1.995237588882446289e+00,-1.680144108831882477e-02,-1.915611699223518372e-02
6.120000000000000000e+03,8.899999618530273438e+00,3.000000000000000000e+00,8.410824925420001819e-09,1.845540431588688080e-08,1.995229125022888184e+00,-1.675404421985149384e-02,-1.916990615427494049e-02
6.121000000000000000e+03,9.000000000000000000e+00,3.000000000000000000e+00,8.506074955505482649e-09,1.888002998384763487e-08,1.995223045349121094e+00,-1.671164110302925110e-02,-1.918230950832366943e-02
6.122000000000000000e+03,9.100000381469726562e+00,3.000000000000000000e+00,8.601324097412543779e-09,1.930941451178114221e-08,1.995219111442565918e+00,-1.667381636798381805e-02,-1.919294707477092743e-02
6.123000000000000000e+03,9.199999809265136719e+00,3.000000000000000000e+00,8.696571462962765509e-09,1.974355257061688462e-08,1.995216846466064453e+00,-1.664017327129840851e-02,-1.920197531580924988e-02
6.124000000000000000e+03,9.300000190734863281e+00,3.000000000000000000e+00,8.791819716691406938e-09,2.018245126578221971e-08,1.995216012001037598e+00,-1.661035045981407166e-02,-1.921008527278900146e-02
6.125000000000000000e+03,9.399999618530273438e+00,3.000000000000000000e+00,8.887066194063208968e-09,2.062610526820662926e-08,1.995216608047485352e+00,-1.658400334417819977e-02,-1.921668089926242828e-02
6.126000000000000000e+03,9.500000000000000000e+00,3.000000000000000000e+00,8.982313559613430698e-09,2.107452168331747089e-08,1.995218157768249512e+00,-1.656081713736057281e-02,-1.922261156141757965e-02
6.127000000000000000e+03,9.600000381469726562e+00,3.000000000000000000e+00,9.077560925163652428e-09,2.152769518204422639e-08,1.995220661163330078e+00,-1.654049195349216461e-02,-1.922744326293468475e-02
6.128000000000000000e+03,9.699999809265136719e+00,3.000000000000000000e+00,9.172806514357034757e-09,2.198562398803005635e-08,1.995223879814147949e+00,-1.652275957167148590e-02,-1.923127658665180206e-02
6.129000000000000000e+03,9.800000190734863281e+00,3.000000000000000000e+00,9.268053879907256487e-09,2.244831520670231839e-08,1.995227694511413574e+00,-1.650736480951309204e-02,-1.923475228250026703e-02
6.130000000000000000e+03,9.899999618530273438e+00,3.000000000000000000e+00,9.363299469100638817e-09,2.291576173263365490e-08,1.995232105255126953e+00,-1.649407483637332916e-02,-1.923722401261329651e-02
6.131000000000000000e+03,1.000000000000000000e+01,3.000000000000000000e+00,9.458546834650860546e-09,2.338796889489458408e-08,1.995236754417419434e+00,-1.648267358541488647e-02,-1.923949830234050751e-02
6.132000000000000000e+03,1.010000038146972656e+01,3.000000000000000000e+00,9.553794200201082276e-09,2.386493669348510593e-08,1.995241641998291016e+00,-1.647296547889709473e-02,-1.924110390245914459e-02
6.133000000000000000e+03,1.019999980926513672e+01,3.000000000000000000e+00,9.649040677572884306e-09,2.434665802297786286e-08,1.995246767997741699e+00,-1.646476984024047852e-02,-1.924208179116249084e-02
6.134000000000000000e+03,1.030000019073486328e+01,3.000000000000000000e+00,9.744288043123106036e-09,2.483314176515705185e-08,1.995252013206481934e+00,-1.645792089402675629e-02,-1.924307085573673248e-02
6.135000000000000000e+03,1.039999961853027344e+01,3.000000000000000000e+00,9.839534520494908065e-09,2.532438081459531531e-08,1.995257258415222168e+00,-1.645226590335369110e-02,-1.924335584044456482e-02
6.136000000000000000e+03,1.050000000000000000e+01,3.000000000000000000e+00,9.934782774223549495e-09,2.582038227672001085e-08,1.995262503623962402e+00,-1.644766703248023987e-02,-1.924374699592590332e-02
6.137000000000000000e+03,1.060000038146972656e+01,3.000000000000000000e+00,1.003003102795219093e-08,2.632114437517429906e-08,1.995267748832702637e+00,-1.644400134682655334e-02,-1.924371346831321716e-02
6.138000000000000000e+03,1.069999980926513672e+01,3.000000000000000000e+00,1.012527750532399295e-08,2.682666000453082233e-08,1.995272874832153320e+00,-1.644115336239337921e-02,-1.924328878521919250e-02
6.139000000000000000e+03,1.080000019073486328e+01,3.000000000000000000e+00,1.022052664723105408e-08,2.733693804657377768e-08,1.995278000831604004e+00,-1.643902063369750977e-02,-1.924308203160762787e-02
6.140000000000000000e+03,1.089999961853027344e+01,3.000000000000000000e+00,1.031577401278127581e-08,2.785197139587580750e-08,1.995282888412475586e+00,-1.643751002848148346e-02,-1.924235373735427856e-02
6.141000000000000000e+03,1.100000000000000000e+01,3.000000000000000000e+00,1.041102315468833694e-08,2.837176715786426939e-08,1.995287537574768066e+00,-1.643653772771358490e-02,-1.924190111458301544e-02
6.142000000000000000e+03,1.110000038146972656e+01,3.000000000000000000e+00,1.050627229659539807e-08,2.889632355618232395e-08,1.995292186737060547e+00,-1.643602922558784485e-02,-1.924116723239421844e-02
6.143000000000000000e+03,1.119999980926513672e+01,3.000000000000000000e+00,1.060152055032403950e-08,2.942563348540261359e-08,1.995296597480773926e+00,-1.643591560423374176e-02,-1.924017071723937988e-02
6.144000000000000000e+03,1.130000019073486328e+01,3.000000000000000000e+00,1.069676969223110063e-08,2.995970760366617469e-08,1.995300769805908203e+00,-1.643613725900650024e-02,-1.923950947821140289e-02
6.145000000000000000e+03,1.139999961853027344e+01,3.000000000000000000e+00,1.079201883413816176e-08,3.049853347647513147e-08,1.995304703712463379e+00,-1.643664017319679260e-02,-1.923842728137969971e-02
6.146000000000000000e+03,1.150000000000000000e+01,3.000000000000000000e+00,1.088726886422364259e-08,3.104212709104103851e-08,1.995308518409729004e+00,-1.643737778067588806e-02,-1.923770457506179810e-02
6.147000000000000000e+03,1.160000038146972656e+01,3.000000000000000000e+00,1.098251889430912343e-08,3.159047778922285943e-08,1.995312094688415527e+00,-1.643830537796020508e-02,-1.923677884042263031e-02
6.148000000000000000e+03,1.169999980926513672e+01,3.000000000000000000e+00,1.107776803621618456e-08,3.214358201830691542e-08,1.995315551757812500e+00,-1.643938757479190826e-02,-1.923565939068794250e-02
6.149000000000000000e+03,1.180000019073486328e+01,3.000000000000000000e+00,1.117301806630166539e-08,3.270145043643424287e-08,1.995318651199340820e+00,-1.644059084355831146e-02,-1.923492923378944397e-02
6.150000000000000000e+03,1.189999961853027344e+01,3.000000000000000000e+00,1.126826809638714622e-08,3.326407593817748420e-08,1.995321750640869141e+00,-1.644188538193702698e-02,-1.923382654786109924e-02
6.151000000000000000e+03,1.200000000000000000e+01,3.000000000000000000e+00,1.136351901465104675e-08,3.383146207625031820e-08,1.995324492454528809e+00,-1.644324697554111481e-02,-1.923312619328498840e-02
6.152000000000000000e+03,1.210000038146972656e+01,3.000000000000000000e+00,1.145876993291494728e-08,3.440360885065274488e-08,1.995327115058898926e+00,-1.644465327262878418e-02,-1.923225633800029755e-02
6.153000000000000000e+03,1.219999980926513672e+01,3.000000000000000000e+00,1.155401996300042811e-08,3.498050915595740662e-08,1.995329618453979492e+00,-1.644608564674854279e-02,-1.923122256994247437e-02
6.154000000000000000e+03,1.230000019073486328e+01,3.000000000000000000e+00,1.164927088126432864e-08,3.556217365030533983e-08,1.995331883430480957e+00,-1.644752919673919678e-02,-1.923060044646263123e-02
6.155000000000000000e+03,1.239999961853027344e+01,3.000000000000000000e+00,1.174452091134980947e-08,3.614859167555550812e-08,1.995334029197692871e+00,-1.644896902143955231e-02,-1.922962628304958344e-02
6.156000000000000000e+03,1.250000000000000000e+01,3.000000000000000000e+00,1.183977271779212970e-08,3.673977388984894787e-08,1.995335936546325684e+00,-1.645039394497871399e-02,-1.922906935214996338e-02
6.157000000000000000e+03,1.260000038146972656e+01,3.000000000000000000e+00,1.193502363605603023e-08,3.733571674047198030e-08,1.995337724685668945e+00,-1.645179465413093567e-02,-1.922835409641265869e-02
6.158000000000000000e+03,1.269999980926513672e+01,3.000000000000000000e+00,1.203027455431993076e-08,3.793640956928356900e-08,1.995339393615722656e+00,-1.645316183567047119e-02,-1.922748051583766937e-02
6.159000000000000000e+03,1.280000019073486328e+01,3.000000000000000000e+00,1.212552636076225099e-08,3.854187013985210797e-08,1.995340943336486816e+00,-1.645449176430702209e-02,-1.922702603042125702e-02
6.160000000000000000e+03,1.289999961853027344e+01,3.000000000000000000e+00,1.222077727902615152e-08,3.915208424132288201e-08,1.995342373847961426e+00,-1.645577512681484222e-02,-1.922622323036193848e-02
6.161000000000000000e+03,1.300000000000000000e+01,3.000000000000000000e+00,1.231602908546847175e-08,3.976706253183692752e-08,1.995343685150146484e+00,-1.645701192319393158e-02,-1.922583952546119690e-02
6.162000000000000000e+03,1.310000038146972656e+01,3.000000000000000000e+00,1.241128089191079198e-08,4.038680145868056570e-08,1.995344877243041992e+00,-1.645819656550884247e-02,-1.922529563307762146e-02
6.163000000000000000e+03,1.319999980926513672e+01,3.000000000000000000e+00,1.250653181017469251e-08,4.101129036371276015e-08,1.995346069335937500e+00,-1.645932719111442566e-02,-1.922459341585636139e-02
6.164000000000000000e+03,1.330000019073486328e+01,3.000000000000000000e+00,1.260178361661701274e-08,4.164054701050190488e-08,1.995347023010253906e+00,-1.646040193736553192e-02,-1.922430843114852905e-02
6.165000000000000000e+03,1.339999961853027344e+01,3.000000000000000000e+00,1.269703542305933297e-08,4.227455718819328467e-08,1.995347976684570312e+00,-1.646142266690731049e-02,-1.922367140650749207e-02
6.166000000000000000e+03,1.350000000000000000e+01,3.000000000000000000e+00,1.279228722950165320e-08,4.291333155492793594e-08,1.995348691940307617e+00,-1.646238565444946289e-02,-1.922344788908958435e-02
6.167000000000000000e+03,1.360000038146972656e+01,3.000000000000000000e+00,1.288753992412239313e-08,4.355686300527850108e-08,1.995349526405334473e+00,-1.646329089999198914e-02,-1.922306045889854431e-02
6.168000000000000000e+03,1.369999980926513672e+01,3.000000000000000000e+00,1.298279084238629366e-08,4.420514798653130129e-08,1.995350122451782227e+00,-1.646414212882518768e-02,-1.922251097857952118e-02
6.169000000000000000e+03,1.380000019073486328e+01,3.000000000000000000e+00,1.307804353700703359e-08,4.485820070954105176e-08,1.995350837707519531e+00,-1.646493561565876007e-02,-1.922237128019332886e-02
6.170000000000000000e+03,1.389999961853027344e+01,3.000000000000000000e+00,1.317329445527093412e-08,4.551600341073935851e-08,1.995351314544677734e+00,-1.646567508578300476e-02,-1.922187581658363342e-02
6.171000000000000000e+03,1.400000000000000000e+01,3.000000000000000000e+00,1.326854714989167405e-08,4.617857385369461554e-08,1.995351791381835938e+00,-1.646635867655277252e-02,-1.922178827226161957e-02
6.172000000000000000e+03,1.410000038146972656e+01,3.000000000000000000e+00,1.336379895633399428e-08,4.684590138026578643e-08,1.995352268218994141e+00,-1.646699011325836182e-02,-1.922153681516647339e-02
6.173000000000000000e+03,1.419999980926513672e+01,3.000000000000000000e+00,1.345905076277631451e-08,4.751798599045287119e-08,1.995352625846862793e+00,-1.646756753325462341e-02,-1.922111585736274719e-02
6.174000000000000000e+03,1.430000019073486328e+01,3.000000000000000000e+00,1.355430345739705444e-08,4.819483123696954863e-08,1.995352983474731445e+00,-1.646809279918670654e-02,-1.922110654413700104e-02
6.175000000000000000e+03,1.439999961853027344e+01,3.000000000000000000e+00,1.364955437566095497e-08,4.887643001438846113e-08,1.995353341102600098e+00,-1.646856404840946198e-02,-1.922073774039745331e-02
6.176000000000000000e+03,1.450000000000000000e+01,3.000000000000000000e+00,1.374480707028169491e-08,4.956279653356432391e-08,1.995353579521179199e+00,-1.646898314356803894e-02,-1.922077871859073639e-02
6.177000000000000000e+03,1.460000038146972656e+01,3.000000000000000000e+00,1.384005976490243484e-08,5.025392013635610056e-08,1.995353817939758301e+00,-1.646934822201728821e-02,-1.922065578401088715e-02
6.178000000000000000e+03,1.469999980926513672e+01,3.000000000000000000e+00,1.393531157134475507e-08,5.094979727005011227e-08,1.995353937149047852e+00,-1.646966114640235901e-02,-1.922036893665790558e-02
6.179000000000000000e+03,1.480000019073486328e+01,3.000000000000000000e+00,1.403056426596549500e-08,5.165043859278739546e-08,1.995354056358337402e+00,-1.646991632878780365e-02,-1.922049745917320251e-02
6.180000000000000000e+03,1.489999961853027344e+01,3.000000000000000000e+00,1.412581518422939553e-08,5.235583344642691372e-08,1.995354175567626953e+00,-1.647011563181877136e-02,-1.922027580440044403e-02
6.181000000000000000e+03,1.500000000000000000e+01,3.000000000000000000e+00,1.422106787885013546e-08,5.306599604182338226e-08,1.995354175567626953e+00,-1.647025346755981445e-02,-1.922047697007656097e-02
6.182000000000000000e+03,1.510000038146972656e+01,3.000000000000000000e+00,1.431632057347087539e-08,5.378091572083576466e-08,1.995354175567626953e+00,-1.647032797336578369e-02,-1.922052726149559021e-02
6.183000000000000000e+03,1.519999980926513672e+01,3.000000000000000000e+00,1.441157237991319562e-08,5.450058537803670333e-08,1.995354175567626953e+00,-1.647033542394638062e-02,-1.922043599188327789e-02
6.184000000000000000e+03,1.530000019073486328e+01,3.000000000000000000e+00,1.450682418635551585e-08,5.522502277699459228e-08,1.995354056358337402e+00,-1.647026836872100830e-02,-1.922078244388103485e-02
6.185000000000000000e+03,1.539999961853027344e+01,3.000000000000000000e+00,1.460207599279783608e-08,5.595421370685471629e-08,1.995353937149047852e+00,-1.647012308239936829e-02,-1.922080852091312408e-02
6.186000000000000000e+03,1.550000000000000000e+01,3.000000000000000000e+00,1.469732868741857601e-08,5.668816882575811178e-08,1.995353698730468750e+00,-1.646988838911056519e-02,-1.922129094600677490e-02
6.187000000000000000e+03,1.560000038146972656e+01,3.000000000000000000e+00,1.479258138203931594e-08,5.742688458099109994e-08,1.995353341102600098e+00,-1.646956056356430054e-02,-1.922166720032691956e-02
6.188000000000000000e+03,1.569999980926513672e+01,3.000000000000000000e+00,1.488783230030321647e-08,5.817035386712632317e-08,1.995352983474731445e+00,-1.646912470459938049e-02,-1.922195032238960266e-02
6.189000000000000000e+03,1.580000019073486328e+01,3.000000000000000000e+00,1.498308499492395640e-08,5.891858734230481787e-08,1.995352506637573242e+00,-1.646857336163520813e-02,-1.922273449599742889e-02
6.190000000000000000e+03,1.589999961853027344e+01,3.000000000000000000e+00,1.507833680136627663e-08,5.967157079567186884e-08,1.995351910591125488e+00,-1.646788977086544037e-02,-1.922326534986495972e-02
6.191000000000000000e+03,1.600000000000000000e+01,3.000000000000000000e+00,1.517358860780859686e-08,6.042932199079587008e-08,1.995351076126098633e+00,-1.646706275641918182e-02,-1.922433823347091675e-02
6.192000000000000000e+03,1.610000038146972656e+01,3.000000000000000000e+00,1.526884041425091709e-08,6.119183382224946399e-08,1.995350122451782227e+00,-1.646607182919979095e-02,-1.922539807856082916e-02
6.193000000000000000e+03,1.620000076293945312e+01,3.000000000000000000e+00,1.536409399705007672e-08,6.195909918460529298e-08,1.995349049568176270e+00,-1.646490395069122314e-02,-1.922666653990745544e-02
6.194000000000000000e+03,1.629999923706054688e+01,3.000000000000000000e+00,1.545934402713555755e-08,6.273111807786335703e-08,1.995347619056701660e+00,-1.646353676915168762e-02,-1.922779344022274017e-02
6.195000000000000000e+03,1.639999961853027344e+01,3.000000000000000000e+00,1.555459583357787778e-08,6.350790471287837136e-08,1.995346069335937500e+00,-1.646194979548454285e-02,-1.922996714711189270e-02
6.196000000000000000e+03,1.650000000000000000e+01,3.000000000000000000e+00,1.564984764002019801e-08,6.428945198422297835e-08,1.995344161987304688e+00,-1.646012067794799805e-02,-1.923207566142082214e-02
6.197000000000000000e+03,1.660000038146972656e+01,3.000000000000000000e+00,1.574509944646251824e-08,6.507575278646982042e-08,1.995341897010803223e+00,-1.645802892744541168e-02,-1.923455297946929932e-02
6.198000000000000000e+03,1.670000076293945312e+01,3.000000000000000000e+00,1.584035125290483847e-08,6.586682133047361276e-08,1.995339274406433105e+00,-1.645565032958984375e-02,-1.923744939267635345e-02
6.199000000000000000e+03,1.679999923706054688e+01,3.000000000000000000e+00,1.593560128299031931e-08,6.666262208909756737e-08,1.995336174964904785e+00,-1.645296439528465271e-02,-1.924044080078601837e-02
6.200000000000000000e+03,1.689999961853027344e+01,3.000000000000000000e+00,1.603085131307580014e-08,6.746320480033318745e-08,1.995332598686218262e+00,-1.644994877278804779e-02,-1.924474164843559265e-02
6.201000000000000000e+03,1.700000000000000000e+01,3.000000000000000000e+00,1.612610311951812037e-08,6.826854814789840020e-08,1.995328426361083984e+00,-1.644658856093883514e-02,-1.924927346408367157e-02
6.202000000000000000e+03,1.710000038146972656e+01,3.000000000000000000e+00,1.622135314960360120e-08,6.907864502636584803e-08,1.995323657989501953e+00,-1.644287072122097015e-02,-1.925449259579181671e-02
6.203000000000000000e+03,1.720000076293945312e+01,3.000000000000000000e+00,1.631660317968908203e-08,6.989350254116288852e-08,1.995318174362182617e+00,-1.643878780305385590e-02,-1.926048472523689270e-02
6.204000000000000000e+03,1.729999923706054688e+01,3.000000000000000000e+00,1.641185143341772346e-08,7.071310648143480648e-08,1.995311856269836426e+00,-1.643434911966323853e-02,-1.926694810390472412e-02
6.205000000000000000e+03,1.739999961853027344e+01,3.000000000000000000e+00,1.650710146350320429e-08,7.153748526889103232e-08,1.995304822921752930e+00,-1.642956770956516266e-02,-1.927513070404529572e-02
6.206000000000000000e+03,1.750000000000000000e+01,3.000000000000000000e+00,1.660234971723184572e-08,7.236661758724949323e-08,1.995296716690063477e+00,-1.642448082566261292e-02,-1.928396895527839661e-02
6.207000000000000000e+03,1.760000038146972656e+01,3.000000000000000000e+00,1.669759974731732655e-08,7.320051054193754680e-08,1.995287537574768066e+00,-1.641914434731006622e-02,-1.929393783211708069e-02
6.208000000000000000e+03,1.770000076293945312e+01,3.000000000000000000e+00,1.679284800104596798e-08,7.403915702752783545e-08,1.995277404785156250e+00,-1.641364209353923798e-02,-1.930512674152851105e-02
6.209000000000000000e+03,1.779999923706054688e+01,3.000000000000000000e+00,1.688809270206093061e-08,7.488254993859300157e-08,1.995266199111938477e+00,-1.640809141099452972e-02,-1.931722462177276611e-02
6.210000000000000000e+03,1.789999961853027344e+01,3.000000000000000000e+00,1.698333917943273264e-08,7.573071769684247556e-08,1.995253682136535645e+00,-1.640264689922332764e-02,-1.933144964277744293e-02
6.211000000000000000e+03,1.800000000000000000e+01,3.000000000000000000e+00,1.707858565680453466e-08,7.658364609142154222e-08,1.995240092277526855e+00,-1.639750972390174866e-02,-1.934668794274330139e-02
6.212000000000000000e+03,1.810000038146972656e+01,3.000000000000000000e+00,1.717383035781949729e-08,7.744132801690284396e-08,1.995225429534912109e+00,-1.639293320477008820e-02,-1.936332508921623230e-02
6.213000000000000000e+03,1.820000076293945312e+01,3.000000000000000000e+00,1.726907505883445992e-08,7.830377768414109596e-08,1.995209693908691406e+00,-1.638923026621341705e-02,-1.938132382929325104e-02
6.214000000000000000e+03,1.829999923706054688e+01,3.000000000000000000e+00,1.736431798349258315e-08,7.917095956599951023e-08,1.995193004608154297e+00,-1.638676971197128296e-02,-1.940019614994525909e-02
6.215000000000000000e+03,1.839999961853027344e+01,3.000000000000000000e+00,1.745956090815070638e-08,8.004291629504223238e-08,1.995175600051879883e+00,-1.638597995042800903e-02,-1.942091621458530426e-02
6.216000000000000000e+03,1.850000000000000000e+01,3.000000000000000000e+00,1.755480205645199021e-08,8.091963366041454719e-08,1.995157718658447266e+00,-1.638734899461269379e-02,-1.944205723702907562e-02
6.217000000000000000e+03,1.860000038146972656e+01,3.000000000000000000e+00,1.765004320475327404e-08,8.180111166211645468e-08,1.995139598846435547e+00,-1.639140769839286804e-02,-1.946360617876052856e-02
6.218000000000000000e+03,1.870000076293945312e+01,3.000000000000000000e+00,1.774528435305455787e-08,8.268735030014795484e-08,1.995121717453002930e+00,-1.639871113002300262e-02,-1.948503591120243073e-02
6.219000000000000000e+03,1.879999923706054688e+01,3.000000000000000000e+00,1.784052194864216290e-08,8.357832825822697487e-08,1.995104551315307617e+00,-1.640981622040271759e-02,-1.950527168810367584e-02
6.220000000000000000e+03,1.889999961853027344e+01,3.000000000000000000e+00,1.793576132058660733e-08,8.447408106349030277e-08,1.995088458061218262e+00,-1.642524264752864838e-02,-1.952461525797843933e-02
6.221000000000000000e+03,1.900000000000000000e+01,3.000000000000000000e+00,1.803099891617421235e-08,8.537459450508322334e-08,1.995074152946472168e+00,-1.644542813301086426e-02,-1.954088360071182251e-02
6.222000000000000000e+03,1.910000038146972656e+01,3.000000000000000000e+00,1.812623828811865678e-08,8.627986858300573658e-08,1.995061874389648438e+00,-1.647067442536354065e-02,-1.955326646566390991e-02
6.223000000000000000e+03,1.920000076293945312e+01,3.000000000000000000e+00,1.822147766006310121e-08,8.718990329725784250e-08,1.995052218437194824e+00,-1.650109142065048218e-02,-1.956043206155300140e-02
6.224000000000000000e+03,1.929999923706054688e+01,3.000000000000000000e+00,1.831671347929386684e-08,8.810467733155746828e-08,1.995045423507690430e+00,-1.653654873371124268e-02,-1.956056803464889526e-02
6.225000000000000000e+03,1.939999961853027344e+01,3.000000000000000000e+00,1.841195285123831127e-08,8.902424042389611714e-08,1.995041608810424805e+00,-1.657664030790328979e-02,-1.955337449908256531e-02
6.226000000000000000e+03,1.950000000000000000e+01,3.000000000000000000e+00,1.850719222318275570e-08,8.994856415256435866e-08,1.995040655136108398e+00,-1.662065088748931885e-02,-1.953630149364471436e-02
6.227000000000000000e+03,1.960000038146972656e+01,3.000000000000000000e+00,1.860243337148403953e-08,9.087764851756219286e-08,1.995042324066162109e+00,-1.666757650673389435e-02,-1.950850524008274078e-02
6.228000000000000000e+03,1.970000076293945312e+01,3.000000000000000000e+00,1.869767451978532335e-08,9.181150772974433494e-08,1.995046019554138184e+00,-1.671615801751613617e-02,-1.946902275085449219e-02
6.229000000000000000e+03,1.979999923706054688e+01,3.000000000000000000e+00,1.879291566808660718e-08,9.275010626197399688e-08,1.995050907135009766e+00,-1.676495000720024109e-02,-1.941687613725662231e-02
6.230000000000000000e+03,1.989999961853027344e+01,3.000000000000000000e+00,1.888815859274473041e-08,9.369350095767003950e-08,1.995055913925170898e+00,-1.681244559586048126e-02,-1.935307495296001434e-02
6.231000000000000000e+03,2.000000000000000000e+01,3.000000000000000000e+00,1.898340151740285364e-08,9.464166339512303239e-08,1.995060205459594727e+00,-1.685707829892635345e-02,-1.927678473293781281e-02
6.232000000000000000e+03,0.000000000000000000e+00,3.099999904632568359e+00,7.529359378136990078e-38,1.303531271767338909e-38,1.789860606193542480e+00,5.369581580162048340e-01,-2.325723171234130859e-01
6.233000000000000000e+03,1.000000014901161194e-01,3.099999904632568359e+00,7.756062458952328598e-11,-2.879466803884511705e-11,1.779968738555908203e+00,5.039854645729064941e-01,-2.650081813335418701e-01
6.234000000000000000e+03,2.000000029802322388e-01,3.099999904632568359e+00,1.560161305702578716e-10,-5.039506312254360409e-11,1.790572166442871094e+00,4.766890406608581543e-01,-2.399193942546844482e-01
6.235000000000000000e+03,3.000000119209289551e-01,3.099999904632568359e+00,2.353753025818861033e-10,-6.497444943187602462e-11,1.801259398460388184e+00,4.490571320056915283e-01,-2.167888879776000977e-01
6.236000000000000000e+03,4.000000059604644775e-01,3.099999904632568359e+00,3.156424843719918272e-10,-7.269512769525476870e-11,1.811977624893188477e+00,4.212218523025512695e-01,-1.955000609159469604e-01
6.237000000000000000e+03,5.000000000000000000e-01,3.099999904632568359e+00,3.968164408174601476e-10,-7.370815069407399278e-11,1.822654962539672852e+00,3.933392167091369629e-01,-1.759318411350250244e-01
6.238000000000000000e+03,6.000000238418579102e-01,3.099999904632568359e+00,4.788893170903918417e-10,-6.815352449063283302e-11,1.833204865455627441e+00,3.655812740325927734e-01,-1.579646766185760498e-01
6.239000000000000000e+03,6.999999880790710449e-01,3.099999904632568359e+00,5.618461806911057010e-10,-5.616086415360932449e-11,1.843532562255859375e+00,3.381278812885284424e-01,-1.414850205183029175e-01
6.240000000000000000e+03,8.000000119209289551e-01,3.099999904632568359e+00,6.456649104258360694e-10,-3.785023336422277396e-11,1.853540539741516113e+00,3.111582398414611816e-01,-1.263880878686904907e-01
6.241000000000000000e+03,8.999999761581420898e-01,3.099999904632568359e+00,7.303164184513377677e-10,-1.333323122049145937e-11,1.863135576248168945e+00,2.848435044288635254e-01,-1.125788092613220215e-01
6.242000000000000000e+03,1.000000000000000000e+00,3.099999904632568359e+00,8.157655106977301784e-10,1.728612392115635998e-11,1.872232675552368164e+00,2.593406438827514648e-01,-9.997177124023437500e-02
6.243000000000000000e+03,1.100000023841857910e+00,3.099999904632568359e+00,9.019713864688583271e-10,5.391037269375509311e-11,1.880759716033935547e+00,2.347877919673919678e-01,-8.849000185728073120e-02
6.244000000000000000e+03,1.200000047683715820e+00,3.099999904632568359e+00,9.888889707099224324e-10,9.644791909568795063e-11,1.888659358024597168e+00,2.113012671470642090e-01,-7.806356251239776611e-02
6.245000000000000000e+03,1.299999952316284180e+00,3.099999904632568359e+00,1.076469802185897606e-09,1.448123010394652965e-10,1.895890116691589355e+00,1.889741122722625732e-01,-6.862779706716537476e-02
6.246000000000000000e+03,1.399999976158142090e+00,3.099999904632568359e+00,1.164663365749163404e-09,1.989220455023144041e-10,1.902426719665527344e+00,1.678756922483444214e-01,-6.012199819087982178e-02
6.247000000000000000e+03,1.500000000000000000e+00,3.099999904632568359e+00,1.253417813984469831e-09,2.586998948395091702e-10,1.908258795738220215e+00,1.480527967214584351e-01,-5.248791351914405823e-02
6.248000000000000000e+03,1.600000023841857910e+00,3.099999904632568359e+00,1.342681077431961967e-09,3.240728796427561065e-10,1.913389205932617188e+00,1.295310109853744507e-01,-4.566918686032295227e-02
6.249000000000000000e+03,1.700000047683715820e+00,3.099999904632568359e+00,1.432401974810204592e-09,3.949721105733772220e-10,1.917833089828491211e+00,1.123168244957923889e-01,-3.961066156625747681e-02
6.250000000000000000e+03,1.799999952316284180e+00,3.099999904632568359e+00,1.522530213016182188e-09,4.713324730509782512e-10,1.921614885330200195e+00,9.640002995729446411e-02,-3.425819426774978638e-02
6.251000000000000000e+03,1.899999976158142090e+00,3.099999904632568359e+00,1.613017941437533409e-09,5.530931823649609669e-10,1.924766778945922852e+00,8.175611495971679688e-02,-2.955876849591732025e-02
6.252000000000000000e+03,2.000000000000000000e+00,3.099999904632568359e+00,1.703818974796433849e-09,6.401967844738010172e-10,1.927326917648315430e+00,6.834880262613296509e-02,-2.546041272580623627e-02
6.253000000000000000e+03,2.099999904632568359e+00,3.099999904632568359e+00,1.794890236439528053e-09,7.325896556054090070e-10,1.929337382316589355e+00,5.613235384225845337e-02,-2.191268652677536011e-02
6.254000000000000000e+03,2.200000047683715820e+00,3.099999904632568359e+00,1.886191647315627051e-09,8.302222798128866543e-10,1.930842757225036621e+00,4.505366832017898560e-02,-1.886695809662342072e-02
6.255000000000000000e+03,2.299999952316284180e+00,3.099999904632568359e+00,1.977685348819591127e-09,9.330478611957460089e-10,1.931889057159423828e+00,3.505438938736915588e-02,-1.627635583281517029e-02
6.256000000000000000e+03,2.400000095367431641e+00,3.099999904632568359e+00,2.069338034260681525e-09,1.041024044745597621e-09,1.932522058486938477e+00,2.607241086661815643e-02,-1.409662235528230667e-02
6.257000000000000000e+03,2.500000000000000000e+00,3.099999904632568359e+00,2.161117729215789041e-09,1.154110584877798829e-09,1.932787418365478516e+00,1.804358884692192078e-02,-1.228557527065277100e-02
6.258000000000000000e+03,2.599999904632568359e+00,3.099999904632568359e+00,2.252996456064693120e-09,1.272271399344049314e-09,1.932728767395019531e+00,1.090280897915363312e-02,-1.080397330224514008e-02
6.259000000000000000e+03,2.700000047683715820e+00,3.099999904632568359e+00,2.344949567856247086e-09,1.395473403498215248e-09,1.932388067245483398e+00,4.585138056427240372e-03,-9.615112096071243286e-03
6.260000000000000000e+03,2.799999952316284180e+00,3.099999904632568359e+00,2.436954193996143658e-09,1.523685178028699738e-09,1.931805014610290527e+00,-9.732884354889392853e-04,-8.684857748448848724e-03
6.261000000000000000e+03,2.900000095367431641e+00,3.099999904632568359e+00,2.528990794559149435e-09,1.656879411449097006e-09,1.931016325950622559e+00,-5.834694951772689819e-03,-7.982125505805015564e-03
6.262000000000000000e+03,3.000000000000000000e+00,3.099999904632568359e+00,2.621041828021475339e-09,1.795030235562933285e-09,1.930056333541870117e+00,-1.005901582539081573e-02,-7.478074170649051666e-03
6.263000000000000000e+03,3.099999904632568359e+00,3.099999904632568359e+00,2.713092639439196319e-09,1.938114557731296372e-09,1.928956389427185059e+00,-1.370359398424625397e-02,-7.146767806261777878e-03
6.264000000000000000e+03,3.200000047683715820e+00,3.099999904632568359e+00,2.805130350225226721e-09,2.086111727805928240e-09,1.927744746208190918e+00,-1.682285033166408539e-02,-6.964560132473707199e-03
6.265000000000000000e+03,3.299999952316284180e+00,3.099999904632568359e+00,2.897144080193925220e-09,2.239002316883897947e-09,1.926447272300720215e+00,-1.946808770298957825e-02,-6.909969262778759003e-03
6.266000000000000000e+03,3.400000095367431641e+00,3.099999904632568359e+00,2.989124725516489889e-09,2.396769671619836117e-09,1.925086736679077148e+00,-2.168742939829826355e-02,-6.964027415961027145e-03
6.267000000000000000e+03,3.500000000000000000e+00,3.099999904632568359e+00,3.081064736676353277e-09,2.559397804802188148e-09,1.923683643341064453e+00,-2.352572977542877197e-02,-7.109391037374734879e-03
6.268000000000000000e+03,3.599999904632568359e+00,3.099999904632568359e+00,3.172958118469182409e-09,2.726873171710053612e-09,1.922255635261535645e+00,-2.502463012933731079e-02,-7.330933120101690292e-03
6.269000000000000000e+03,3.700000047683715820e+00,3.099999904632568359e+00,3.264800430002878784e-09,2.899183781934766557e-09,1.920818448066711426e+00,-2.622259408235549927e-02,-7.615100126713514328e-03
6.270000000000000000e+03,3.799999952316284180e+00,3.099999904632568359e+00,3.356587452429948826e-09,3.076317645067661033e-09,1.919385433197021484e+00,-2.715499140322208405e-02,-7.949765771627426147e-03
6.271000000000000000e+03,3.900000095367431641e+00,3.099999904632568359e+00,3.448317409393553135e-09,3.258265657279935112e-09,1.917967915534973145e+00,-2.785423211753368378e-02,-8.324585855007171631e-03
6.272000000000000000e+03,4.000000000000000000e+00,3.099999904632568359e+00,3.539987858403037535e-09,3.445018048608972094e-09,1.916575789451599121e+00,-2.834988385438919067e-02,-8.730126544833183289e-03
6.273000000000000000e+03,4.099999904632568359e+00,3.099999904632568359e+00,3.631598133324587252e-09,3.636567713627414378e-09,1.915216922760009766e+00,-2.866882272064685822e-02,-9.158480912446975708e-03
6.274000000000000000e+03,4.199999809265136719e+00,3.099999904632568359e+00,3.723148012113597360e-09,3.832907324863299436e-09,1.913897871971130371e+00,-2.883539162576198578e-02,-9.602608159184455872e-03
6.275000000000000000e+03,4.300000190734863281e+00,3.099999904632568359e+00,3.814637938859277710e-09,4.034032219379923845e-09,1.912623763084411621e+00,-2.887155115604400635e-02,-1.005656272172927856e-02
6.276000000000000000e+03,4.400000095367431641e+00,3.099999904632568359e+00,3.906068357650838152e-09,4.239935069705325077e-09,1.911398887634277344e+00,-2.879704721271991730e-02,-1.051489077508449554e-02
6.277000000000000000e+03,4.500000000000000000e+00,3.099999904632568359e+00,3.997440600755908235e-09,4.450611434947404632e-09,1.910225987434387207e+00,-2.862955443561077118e-02,-1.097345259040594101e-02
6.278000000000000000e+03,4.599999904632568359e+00,3.099999904632568359e+00,4.088755556352907661e-09,4.666057762392483710e-09,1.909107327461242676e+00,-2.838484942913055420e-02,-1.142842974513769150e-02
6.279000000000000000e+03,4.699999809265136719e+00,3.099999904632568359e+00,4.180015888977095528e-09,4.886270943416093360e-09,1.908044099807739258e+00,-2.807694673538208008e-02,-1.187669672071933746e-02
6.280000000000000000e+03,4.800000190734863281e+00,3.099999904632568359e+00,4.271223374985311239e-09,5.111247869393764631e-09,1.907037019729614258e+00,-2.771824598312377930e-02,-1.231575571000576019e-02
6.281000000000000000e+03,4.900000095367431641e+00,3.099999904632568359e+00,4.362379790734394192e-09,5.340984543522608874e-09,1.906086087226867676e+00,-2.731968089938163757e-02,-1.274321787059307098e-02
6.282000000000000000e+03,5.000000000000000000e+00,3.099999904632568359e+00,4.453487356670393638e-09,5.575479633534996537e-09,1.905190944671630859e+00,-2.689082920551300049e-02,-1.315765921026468277e-02
6.283000000000000000e+03,5.099999904632568359e+00,3.099999904632568359e+00,4.544548293239358827e-09,5.814731363074088222e-09,1.904350519180297852e+00,-2.644005231559276581e-02,-1.355766132473945618e-02
6.284000000000000000e+03,5.199999809265136719e+00,3.099999904632568359e+00,4.635565264976548860e-09,6.058737955783044526e-09,1.903563737869262695e+00,-2.597460336983203888e-02,-1.394221559166908264e-02
6.285000000000000000e+03,5.300000190734863281e+00,3.099999904632568359e+00,4.726540492328012988e-09,6.307499411661865452e-09,1.902829051017761230e+00,-2.550073154270648956e-02,-1.431067846715450287e-02
6.286000000000000000e+03,5.400000095367431641e+00,3.099999904632568359e+00,4.817476195739800460e-09,6.561012177996872197e-09,1.902144670486450195e+00,-2.502379938960075378e-02,-1.466228719800710678e-02
6.287000000000000000e+03,5.500000000000000000e+00,3.099999904632568359e+00,4.908375039747170376e-09,6.819276698877274612e-09,1.901508808135986328e+00,-2.454835176467895508e-02,-1.499703153967857361e-02
6.288000000000000000e+03,5.599999904632568359e+00,3.099999904632568359e+00,4.999238800706962138e-09,7.082292530213862847e-09,1.900919437408447266e+00,-2.407821826636791229e-02,-1.531472150236368179e-02
6.289000000000000000e+03,5.699999809265136719e+00,3.099999904632568359e+00,5.090070143154434845e-09,7.350058339739007351e-09,1.900374293327331543e+00,-2.361658215522766113e-02,-1.561540644615888596e-02
6.290000000000000000e+03,5.800000190734863281e+00,3.099999904632568359e+00,5.180871287535637748e-09,7.622576347898757376e-09,1.899871349334716797e+00,-2.316606044769287109e-02,-1.589935086667537689e-02
6.291000000000000000e+03,5.900000095367431641e+00,3.099999904632568359e+00,5.271644010207410247e-09,7.899842557890224271e-09,1.899408221244812012e+00,-2.272877283394336700e-02,-1.616656780242919922e-02
6.292000000000000000e+03,6.000000000000000000e+00,3.099999904632568359e+00,5.362390531615801592e-09,8.181858746070247435e-09,1.898982882499694824e+00,-2.230638451874256134e-02,-1.641770079731941223e-02
6.293000000000000000e+03,6.099999904632568359e+00,3.099999904632568359e+00,5.453112628117651184e-09,8.468624912438826868e-09,1.898593068122863770e+00,-2.190017700195312500e-02,-1.665310934185981750e-02
6.294000000000000000e+03,6.199999809265136719e+00,3.099999904632568359e+00,5.543812076069798422e-09,8.760140168817542872e-09,1.898236632347106934e+00,-2.151109278202056885e-02,-1.687329821288585663e-02
6.295000000000000000e+03,6.300000190734863281e+00,3.099999904632568359e+00,5.634491095918292558e-09,9.056408067920074245e-09,1.897911429405212402e+00,-2.113978192210197449e-02,-1.707889884710311890e-02
6.296000000000000000e+03,6.400000095367431641e+00,3.099999904632568359e+00,5.725150575841553291e-09,9.357424168854322488e-09,1.897615313529968262e+00,-2.078664116561412811e-02,-1.727022789418697357e-02
6.297000000000000000e+03,6.500000000000000000e+00,3.099999904632568359e+00,5.815792292196420021e-09,9.663191136155546701e-09,1.897346377372741699e+00,-2.045184560120105743e-02,-1.744815707206726074e-02
6.298000000000000000e+03,6.599999904632568359e+00,3.099999904632568359e+00,5.906418021339732149e-09,9.973708081645327184e-09,1.897102713584899902e+00,-2.013538964092731476e-02,-1.761322468519210815e-02
6.299000000000000000e+03,6.699999809265136719e+00,3.099999904632568359e+00,5.997029095539119226e-09,1.028897589350208364e-08,1.896882534027099609e+00,-1.983710937201976776e-02,-1.776606030762195587e-02
6.300000000000000000e+03,6.800000190734863281e+00,3.099999904632568359e+00,6.087627291151420650e-09,1.060899723626107516e-08,1.896683931350708008e+00,-1.955670863389968872e-02,-1.790738478302955627e-02
6.301000000000000000e+03,6.900000095367431641e+00,3.099999904632568359e+00,6.178212608176636422e-09,1.093376855720862295e-08,1.896505475044250488e+00,-1.929379440844058990e-02,-1.803755387663841248e-02
6.302000000000000000e+03,7.000000000000000000e+00,3.099999904632568359e+00,6.268786822971605943e-09,1.126329163270156641e-08,1.896345257759094238e+00,-1.904787309467792511e-02,-1.815746165812015533e-02
6.303000000000000000e+03,7.099999904632568359e+00,3.099999904632568359e+00,6.359350823714748913e-09,1.159756646273990555e-08,1.896202087402343750e+00,-1.881838962435722351e-02,-1.826763153076171875e-02
6.304000000000000000e+03,7.199999809265136719e+00,3.099999904632568359e+00,6.449905942673694881e-09,1.193659482368047975e-08,1.896074414253234863e+00,-1.860473491251468658e-02,-1.836865954101085663e-02
6.305000000000000000e+03,7.300000190734863281e+00,3.099999904632568359e+00,6.540453068026863548e-09,1.228037760370170872e-08,1.895960927009582520e+00,-1.840625703334808350e-02,-1.846120879054069519e-02
6.306000000000000000e+03,7.400000095367431641e+00,3.099999904632568359e+00,6.630992199774254914e-09,1.262891125008991366e-08,1.895860314369201660e+00,-1.822227984666824341e-02,-1.854557171463966370e-02
6.307000000000000000e+03,7.500000000000000000e+00,3.099999904632568359e+00,6.721524670183498529e-09,1.298219931555877338e-08,1.895771622657775879e+00,-1.805210858583450317e-02,-1.862255483865737915e-02
6.308000000000000000e+03,7.599999904632568359e+00,3.099999904632568359e+00,6.812051367433014093e-09,1.334024091192986816e-08,1.895693659782409668e+00,-1.789503544569015503e-02,-1.869258843362331390e-02
6.309000000000000000e+03,7.699999809265136719e+00,3.099999904632568359e+00,6.902572735612011456e-09,1.370303781556003742e-08,1.895625352859497070e+00,-1.775035448372364044e-02,-1.875616796314716339e-02
6.310000000000000000e+03,7.800000190734863281e+00,3.099999904632568359e+00,6.993090106988120169e-09,1.407059002644928114e-08,1.895565867424011230e+00,-1.761736534535884857e-02,-1.881385222077369690e-02
6.311000000000000000e+03,7.900000095367431641e+00,3.099999904632568359e+00,7.083602149293710681e-09,1.444289576824075993e-08,1.895514249801635742e+00,-1.749537512660026550e-02,-1.886581629514694214e-02
6.312000000000000000e+03,8.000000000000000000e+00,3.099999904632568359e+00,7.174111082974832243e-09,1.481995681729131320e-08,1.895469903945922852e+00,-1.738370396196842194e-02,-1.891275495290756226e-02
6.313000000000000000e+03,8.100000381469726562e+00,3.099999904632568359e+00,7.264616908031484854e-09,1.520177406177936064e-08,1.895431876182556152e+00,-1.728169433772563934e-02,-1.895507797598838806e-02
6.314000000000000000e+03,8.199999809265136719e+00,3.099999904632568359e+00,7.355119180374458665e-09,1.558834483716964314e-08,1.895399570465087891e+00,-1.718870922923088074e-02,-1.899278908967971802e-02
6.315000000000000000e+03,8.300000190734863281e+00,3.099999904632568359e+00,7.445619676360593076e-09,1.597967447253267892e-08,1.895372390747070312e+00,-1.710412837564945221e-02,-1.902688667178153992e-02
6.316000000000000000e+03,8.399999618530273438e+00,3.099999904632568359e+00,7.536117507811468386e-09,1.637575763879794977e-08,1.895349860191345215e+00,-1.702736318111419678e-02,-1.905697397887706757e-02
6.317000000000000000e+03,8.500000000000000000e+00,3.099999904632568359e+00,7.626614006994714146e-09,1.677659966503597389e-08,1.895331263542175293e+00,-1.695784553885459900e-02,-1.908409409224987030e-02
6.318000000000000000e+03,8.600000381469726562e+00,3.099999904632568359e+00,7.717108729821120505e-09,1.718219877488991187e-08,1.895316243171691895e+00,-1.689503714442253113e-02,-1.910798810422420502e-02
6.319000000000000000e+03,8.699999809265136719e+00,3.099999904632568359e+00,7.807600788112267765e-09,1.759255141564608493e-08,1.895304441452026367e+00,-1.683842763304710388e-02,-1.912892796099185944e-02
6.320000000000000000e+03,8.800000190734863281e+00,3.099999904632568359e+00,7.898093734581834724e-09,1.800766469273185066e-08,1.895295381546020508e+00,-1.678753085434436798e-02,-1.914771832525730133e-02
6.321000000000000000e+03,8.899999618530273438e+00,3.099999904632568359e+00,7.988584016516142583e-09,1.842753150071985146e-08,1.895288705825805664e+00,-1.674188859760761261e-02,-1.916385814547538757e-02
6.322000000000000000e+03,9.000000000000000000e+00,3.099999904632568359e+00,8.079074298450450442e-09,1.885216072139428434e-08,1.895284056663513184e+00,-1.670107059180736542e-02,-1.917829737067222595e-02
6.323000000000000000e+03,9.100000381469726562e+00,3.099999904632568359e+00,8.169564580384758301e-09,1.928154524932779168e-08,1.895281314849853516e+00,-1.666467078030109406e-02,-1.919068954885005951e-02
6.324000000000000000e+03,9.199999809265136719e+00,3.099999904632568359e+00,8.260053085962226760e-09,1.971568508452037349e-08,1.895280003547668457e+00,-1.663231104612350464e-02,-1.920122094452381134e-02
6.325000000000000000e+03,9.300000190734863281e+00,3.099999904632568359e+00,8.350541591539695219e-09,2.015458555604254798e-08,1.895280122756958008e+00,-1.660363748669624329e-02,-1.921060681343078613e-02
6.326000000000000000e+03,9.399999618530273438e+00,3.099999904632568359e+00,8.441029208938743977e-09,2.059824133482379693e-08,1.895281314849853516e+00,-1.657831855118274689e-02,-1.921827532351016998e-02
6.327000000000000000e+03,9.500000000000000000e+00,3.099999904632568359e+00,8.531517714516212436e-09,2.104665774993463856e-08,1.895283460617065430e+00,-1.655604690313339233e-02,-1.922510005533695221e-02
6.328000000000000000e+03,9.600000381469726562e+00,3.099999904632568359e+00,8.622006220093680895e-09,2.149983302501823346e-08,1.895286321640014648e+00,-1.653653569519519806e-02,-1.923066563904285431e-02
6.329000000000000000e+03,9.699999809265136719e+00,3.099999904632568359e+00,8.712493837492729654e-09,2.195776183100406342e-08,1.895289778709411621e+00,-1.651952415704727173e-02,-1.923509128391742706e-02
6.330000000000000000e+03,9.800000190734863281e+00,3.099999904632568359e+00,8.802982343070198112e-09,2.242045482603316486e-08,1.895293831825256348e+00,-1.650476641952991486e-02,-1.923903636634349823e-02
6.331000000000000000e+03,9.899999618530273438e+00,3.099999904632568359e+00,8.893469072290827171e-09,2.288789957560766197e-08,1.895298242568969727e+00,-1.649203523993492126e-02,-1.924186758697032928e-02
6.332000000000000000e+03,1.000000000000000000e+01,3.099999904632568359e+00,8.983957577868295630e-09,2.336010851422543055e-08,1.895302891731262207e+00,-1.648112386465072632e-02,-1.924440823495388031e-02
6.333000000000000000e+03,1.010000038146972656e+01,3.099999904632568359e+00,9.074446083445764089e-09,2.383707631281595241e-08,1.895307779312133789e+00,-1.647184416651725769e-02,-1.924619637429714203e-02
6.334000000000000000e+03,1.019999980926513672e+01,3.099999904632568359e+00,9.164933700844812847e-09,2.431879764230870933e-08,1.895312786102294922e+00,-1.646401733160018921e-02,-1.924728602170944214e-02
6.335000000000000000e+03,1.030000019073486328e+01,3.099999904632568359e+00,9.255422206422281306e-09,2.480528316084473772e-08,1.895317912101745605e+00,-1.645748689770698547e-02,-1.924832724034786224e-02
6.336000000000000000e+03,1.039999961853027344e+01,3.099999904632568359e+00,9.345910711999749765e-09,2.529652221028300119e-08,1.895323038101196289e+00,-1.645210571587085724e-02,-1.924860849976539612e-02
6.337000000000000000e+03,1.050000000000000000e+01,3.099999904632568359e+00,9.436399217577218224e-09,2.579252367240769672e-08,1.895328164100646973e+00,-1.644773967564105988e-02,-1.924895681440830231e-02
6.338000000000000000e+03,1.060000038146972656e+01,3.099999904632568359e+00,9.526888611333106383e-09,2.629328577086198493e-08,1.895333170890808105e+00,-1.644426956772804260e-02,-1.924883946776390076e-02
6.339000000000000000e+03,1.069999980926513672e+01,3.099999904632568359e+00,9.617377116910574841e-09,2.679879962386166881e-08,1.895338058471679688e+00,-1.644158549606800079e-02,-1.924830302596092224e-02
6.340000000000000000e+03,1.080000019073486328e+01,3.099999904632568359e+00,9.707866510666463000e-09,2.730907944226146356e-08,1.895342826843261719e+00,-1.643958687782287598e-02,-1.924796029925346375e-02
6.341000000000000000e+03,1.089999961853027344e+01,3.099999904632568359e+00,9.798355904422351159e-09,2.782411101520665397e-08,1.895347476005554199e+00,-1.643818616867065430e-02,-1.924707554280757904e-02
6.342000000000000000e+03,1.100000000000000000e+01,3.099999904632568359e+00,9.888846186356659018e-09,2.834390855355195526e-08,1.895352005958557129e+00,-1.643729954957962036e-02,-1.924644969403743744e-02
6.343000000000000000e+03,1.110000038146972656e+01,3.099999904632568359e+00,9.979336468290966877e-09,2.886846495187000983e-08,1.895356297492980957e+00,-1.643685810267925262e-02,-1.924553140997886658e-02
6.344000000000000000e+03,1.119999980926513672e+01,3.099999904632568359e+00,1.006982586204685504e-08,2.939777310473346006e-08,1.895360469818115234e+00,-1.643679291009902954e-02,-1.924434490501880646e-02
6.345000000000000000e+03,1.130000019073486328e+01,3.099999904632568359e+00,1.016031614398116290e-08,2.993184722299702116e-08,1.895364403724670410e+00,-1.643704995512962341e-02,-1.924348622560501099e-02
6.346000000000000000e+03,1.139999961853027344e+01,3.099999904632568359e+00,1.025080642591547075e-08,3.047067664851965674e-08,1.895368099212646484e+00,-1.643757522106170654e-02,-1.924220286309719086e-02
6.347000000000000000e+03,1.150000000000000000e+01,3.099999904632568359e+00,1.034129670784977861e-08,3.101426671037188498e-08,1.895371675491333008e+00,-1.643832214176654816e-02,-1.924128085374832153e-02
6.348000000000000000e+03,1.160000038146972656e+01,3.099999904632568359e+00,1.043178787796250617e-08,3.156261740855370590e-08,1.895375013351440430e+00,-1.643924973905086517e-02,-1.924015581607818604e-02
6.349000000000000000e+03,1.169999980926513672e+01,3.099999904632568359e+00,1.052227904807523373e-08,3.211572163763776189e-08,1.895378112792968750e+00,-1.644032448530197144e-02,-1.923883892595767975e-02
6.350000000000000000e+03,1.180000019073486328e+01,3.099999904632568359e+00,1.061277021818796129e-08,3.267359005576508935e-08,1.895381093025207520e+00,-1.644151471555233002e-02,-1.923791691660881042e-02
6.351000000000000000e+03,1.189999961853027344e+01,3.099999904632568359e+00,1.070326050012226915e-08,3.323621555750833068e-08,1.895383954048156738e+00,-1.644278876483440399e-02,-1.923662610352039337e-02
6.352000000000000000e+03,1.200000000000000000e+01,3.099999904632568359e+00,1.079375255841341641e-08,3.380360169558116468e-08,1.895386576652526855e+00,-1.644412800669670105e-02,-1.923574320971965790e-02
6.353000000000000000e+03,1.210000038146972656e+01,3.099999904632568359e+00,1.088424461670456367e-08,3.437574846998359135e-08,1.895388960838317871e+00,-1.644550636410713196e-02,-1.923469826579093933e-02
6.354000000000000000e+03,1.219999980926513672e+01,3.099999904632568359e+00,1.097473578681729123e-08,3.495264877528825309e-08,1.895391225814819336e+00,-1.644690893590450287e-02,-1.923349499702453613e-02
6.355000000000000000e+03,1.230000019073486328e+01,3.099999904632568359e+00,1.106522784510843849e-08,3.553431326963618631e-08,1.895393371582031250e+00,-1.644832082092761993e-02,-1.923271082341670990e-02
6.356000000000000000e+03,1.239999961853027344e+01,3.099999904632568359e+00,1.115571901522116605e-08,3.612073129488635459e-08,1.895395278930664062e+00,-1.644972711801528931e-02,-1.923158206045627594e-02
6.357000000000000000e+03,1.250000000000000000e+01,3.099999904632568359e+00,1.124621196169073301e-08,3.671191350917979435e-08,1.895397067070007324e+00,-1.645111665129661560e-02,-1.923087798058986664e-02
6.358000000000000000e+03,1.260000038146972656e+01,3.099999904632568359e+00,1.133670401998188026e-08,3.730785635980282677e-08,1.895398736000061035e+00,-1.645248197019100189e-02,-1.923002488911151886e-02
6.359000000000000000e+03,1.269999980926513672e+01,3.099999904632568359e+00,1.142719607827302752e-08,3.790854918861441547e-08,1.895400285720825195e+00,-1.645381376147270203e-02,-1.922902092337608337e-02
6.360000000000000000e+03,1.280000019073486328e+01,3.099999904632568359e+00,1.151768813656417478e-08,3.851400975918295444e-08,1.895401716232299805e+00,-1.645510643720626831e-02,-1.922844350337982178e-02
6.361000000000000000e+03,1.289999961853027344e+01,3.099999904632568359e+00,1.160818019485532204e-08,3.912422386065372848e-08,1.895403027534484863e+00,-1.645635627210140228e-02,-1.922752335667610168e-02
6.362000000000000000e+03,1.300000000000000000e+01,3.099999904632568359e+00,1.169867314132488900e-08,3.973920215116777399e-08,1.895404219627380371e+00,-1.645755767822265625e-02,-1.922702975571155548e-02
6.363000000000000000e+03,1.310000038146972656e+01,3.099999904632568359e+00,1.178916608779445596e-08,4.035894107801141217e-08,1.895405292510986328e+00,-1.645870879292488098e-02,-1.922638528048992157e-02
6.364000000000000000e+03,1.319999980926513672e+01,3.099999904632568359e+00,1.187965814608560322e-08,4.098342998304360663e-08,1.895406365394592285e+00,-1.645980775356292725e-02,-1.922558806836605072e-02
6.365000000000000000e+03,1.330000019073486328e+01,3.099999904632568359e+00,1.197015109255517018e-08,4.161268662983275135e-08,1.895407199859619141e+00,-1.646085083484649658e-02,-1.922521367669105530e-02
6.366000000000000000e+03,1.339999961853027344e+01,3.099999904632568359e+00,1.206064315084631744e-08,4.224669325481045234e-08,1.895408034324645996e+00,-1.646183989942073822e-02,-1.922449283301830292e-02
6.367000000000000000e+03,1.350000000000000000e+01,3.099999904632568359e+00,1.215113609731588440e-08,4.288546762154510361e-08,1.895408868789672852e+00,-1.646277308464050293e-02,-1.922419294714927673e-02
6.368000000000000000e+03,1.360000038146972656e+01,3.099999904632568359e+00,1.224162993196387106e-08,4.352900262460934755e-08,1.895409464836120605e+00,-1.646365225315093994e-02,-1.922373659908771515e-02
6.369000000000000000e+03,1.369999980926513672e+01,3.099999904632568359e+00,1.233212199025501832e-08,4.417728760586214776e-08,1.895410180091857910e+00,-1.646447367966175079e-02,-1.922312006354331970e-02
6.370000000000000000e+03,1.380000019073486328e+01,3.099999904632568359e+00,1.242261493672458528e-08,4.483034032887189824e-08,1.895410656929016113e+00,-1.646524108946323395e-02,-1.922291889786720276e-02
6.371000000000000000e+03,1.389999961853027344e+01,3.099999904632568359e+00,1.251310699501573254e-08,4.548814303007020499e-08,1.895411252975463867e+00,-1.646595448255538940e-02,-1.922236569225788116e-02
6.372000000000000000e+03,1.400000000000000000e+01,3.099999904632568359e+00,1.260360082966371920e-08,4.615071347302546201e-08,1.895411610603332520e+00,-1.646661385893821716e-02,-1.922222785651683807e-02
6.373000000000000000e+03,1.410000038146972656e+01,3.099999904632568359e+00,1.269409377613328616e-08,4.681804099959663290e-08,1.895412087440490723e+00,-1.646721921861171722e-02,-1.922192610800266266e-02
6.374000000000000000e+03,1.419999980926513672e+01,3.099999904632568359e+00,1.278458672260285311e-08,4.749012205707003886e-08,1.895412445068359375e+00,-1.646777056157588959e-02,-1.922145858407020569e-02
6.375000000000000000e+03,1.430000019073486328e+01,3.099999904632568359e+00,1.287507966907242007e-08,4.816697085630039510e-08,1.895412683486938477e+00,-1.646826975047588348e-02,-1.922140456736087799e-02
6.376000000000000000e+03,1.439999961853027344e+01,3.099999904632568359e+00,1.296557261554198703e-08,4.884856963371930760e-08,1.895412921905517578e+00,-1.646871678531169891e-02,-1.922099478542804718e-02
6.377000000000000000e+03,1.450000000000000000e+01,3.099999904632568359e+00,1.305606556201155399e-08,4.953493615289517038e-08,1.895413160324096680e+00,-1.646910794079303741e-02,-1.922099478542804718e-02
6.378000000000000000e+03,1.460000038146972656e+01,3.099999904632568359e+00,1.314655939665954065e-08,5.022605975568694703e-08,1.895413398742675781e+00,-1.646944507956504822e-02,-1.922083273530006409e-02
6.379000000000000000e+03,1.469999980926513672e+01,3.099999904632568359e+00,1.323705145495068791e-08,5.092193688938095875e-08,1.895413517951965332e+00,-1.646972633898258209e-02,-1.922050490975379944e-02
6.380000000000000000e+03,1.480000019073486328e+01,3.099999904632568359e+00,1.332754528959867457e-08,5.162257821211824194e-08,1.895413637161254883e+00,-1.646994799375534058e-02,-1.922059431672096252e-02
6.381000000000000000e+03,1.489999961853027344e+01,3.099999904632568359e+00,1.341803734788982183e-08,5.232797306575776020e-08,1.895413756370544434e+00,-1.647011004388332367e-02,-1.922032982110977173e-02
6.382000000000000000e+03,1.500000000000000000e+01,3.099999904632568359e+00,1.350853118253780849e-08,5.303813210844054993e-08,1.895413756370544434e+00,-1.647020690143108368e-02,-1.922048628330230713e-02
6.383000000000000000e+03,1.510000038146972656e+01,3.099999904632568359e+00,1.359902412900737545e-08,5.375305178745293233e-08,1.895413756370544434e+00,-1.647023484110832214e-02,-1.922048814594745636e-02
6.384000000000000000e+03,1.519999980926513672e+01,3.099999904632568359e+00,1.368951707547694241e-08,5.447272499736754980e-08,1.895413637161254883e+00,-1.647018641233444214e-02,-1.922034099698066711e-02
6.385000000000000000e+03,1.530000019073486328e+01,3.099999904632568359e+00,1.378001091012492907e-08,5.519716239632543875e-08,1.895413517951965332e+00,-1.647005788981914520e-02,-1.922062784433364868e-02
6.386000000000000000e+03,1.539999961853027344e+01,3.099999904632568359e+00,1.387050296841607633e-08,5.592635332618556276e-08,1.895413398742675781e+00,-1.646983996033668518e-02,-1.922058500349521637e-02
6.387000000000000000e+03,1.550000000000000000e+01,3.099999904632568359e+00,1.396099680306406299e-08,5.666030844508895825e-08,1.895413160324096680e+00,-1.646952331066131592e-02,-1.922098919749259949e-02
6.388000000000000000e+03,1.560000038146972656e+01,3.099999904632568359e+00,1.405148974953362995e-08,5.739902420032194641e-08,1.895412802696228027e+00,-1.646909862756729126e-02,-1.922127604484558105e-02
6.389000000000000000e+03,1.569999980926513672e+01,3.099999904632568359e+00,1.414198269600319691e-08,5.814248993374349084e-08,1.895412325859069824e+00,-1.646855100989341736e-02,-1.922145485877990723e-02
6.390000000000000000e+03,1.580000019073486328e+01,3.099999904632568359e+00,1.423247564247276387e-08,5.889072340892198554e-08,1.895411729812622070e+00,-1.646786741912364960e-02,-1.922211796045303345e-02
6.391000000000000000e+03,1.589999961853027344e+01,3.099999904632568359e+00,1.432296770076391113e-08,5.964371041500271531e-08,1.895411014556884766e+00,-1.646703295409679413e-02,-1.922250911593437195e-02
6.392000000000000000e+03,1.600000000000000000e+01,3.099999904632568359e+00,1.441346153541189778e-08,6.040146161012671655e-08,1.895410180091857910e+00,-1.646602898836135864e-02,-1.922341622412204742e-02
6.393000000000000000e+03,1.610000038146972656e+01,3.099999904632568359e+00,1.450395448188146474e-08,6.116397344158031046e-08,1.895409107208251953e+00,-1.646483503282070160e-02,-1.922428794205188751e-02
6.394000000000000000e+03,1.620000076293945312e+01,3.099999904632568359e+00,1.459444742835103170e-08,6.193123880393613945e-08,1.895407915115356445e+00,-1.646343059837818146e-02,-1.922533661127090454e-02
6.395000000000000000e+03,1.629999923706054688e+01,3.099999904632568359e+00,1.468493859846375926e-08,6.270325059176684590e-08,1.895406365394592285e+00,-1.646178960800170898e-02,-1.922620832920074463e-02
6.396000000000000000e+03,1.639999961853027344e+01,3.099999904632568359e+00,1.477543154493332622e-08,6.348004433220921783e-08,1.895404577255249023e+00,-1.645988970994949341e-02,-1.922808960080146790e-02
6.397000000000000000e+03,1.650000000000000000e+01,3.099999904632568359e+00,1.486592449140289318e-08,6.426159160355382483e-08,1.895402431488037109e+00,-1.645770110189914703e-02,-1.922986097633838654e-02
6.398000000000000000e+03,1.660000038146972656e+01,3.099999904632568359e+00,1.495641654969404044e-08,6.504789240580066689e-08,1.895399928092956543e+00,-1.645519770681858063e-02,-1.923195272684097290e-02
6.399000000000000000e+03,1.670000076293945312e+01,3.099999904632568359e+00,1.504690949616360740e-08,6.583896094980445923e-08,1.895397067070007324e+00,-1.645235158503055573e-02,-1.923440955579280853e-02
6.400000000000000000e+03,1.679999923706054688e+01,3.099999904632568359e+00,1.513739888991949556e-08,6.663476170842841384e-08,1.895393610000610352e+00,-1.644913293421268463e-02,-1.923689991235733032e-02
6.401000000000000000e+03,1.689999961853027344e+01,3.099999904632568359e+00,1.522789183638906252e-08,6.743534441966403392e-08,1.895389556884765625e+00,-1.644551567733287811e-02,-1.924063824117183685e-02
6.402000000000000000e+03,1.700000000000000000e+01,3.099999904632568359e+00,1.531838300650179008e-08,6.824068776722924667e-08,1.895384907722473145e+00,-1.644147746264934540e-02,-1.924453489482402802e-02
6.403000000000000000e+03,1.710000038146972656e+01,3.099999904632568359e+00,1.540887417661451764e-08,6.905078464569669450e-08,1.895379424095153809e+00,-1.643700152635574341e-02,-1.924904808402061462e-02
6.404000000000000000e+03,1.720000076293945312e+01,3.099999904632568359e+00,1.549936534672724520e-08,6.986564926592109259e-08,1.895373225212097168e+00,-1.643207482993602753e-02,-1.925425603985786438e-02
6.405000000000000000e+03,1.729999923706054688e+01,3.099999904632568359e+00,1.558985474048313336e-08,7.068524610076565295e-08,1.895366072654724121e+00,-1.642670109868049622e-02,-1.925986073911190033e-02
6.406000000000000000e+03,1.739999961853027344e+01,3.099999904632568359e+00,1.568034413423902151e-08,7.150962488822187879e-08,1.895357966423034668e+00,-1.642089337110519409e-02,-1.926710456609725952e-02
6.407000000000000000e+03,1.750000000000000000e+01,3.099999904632568359e+00,1.577083352799490967e-08,7.233875720658033970e-08,1.895348668098449707e+00,-1.641468703746795654e-02,-1.927493140101432800e-02
6.408000000000000000e+03,1.760000038146972656e+01,3.099999904632568359e+00,1.586132292175079783e-08,7.317265016126839328e-08,1.895338296890258789e+00,-1.640814542770385742e-02,-1.928382366895675659e-02
6.409000000000000000e+03,1.770000076293945312e+01,3.099999904632568359e+00,1.595181053914984659e-08,7.401130375228603953e-08,1.895326614379882812e+00,-1.640135608613491058e-02,-1.929388195276260376e-02
6.410000000000000000e+03,1.779999923706054688e+01,3.099999904632568359e+00,1.604229638019205595e-08,7.485469666335120564e-08,1.895313501358032227e+00,-1.639445312321186066e-02,-1.930481754243373871e-02
6.411000000000000000e+03,1.789999961853027344e+01,3.099999904632568359e+00,1.613278399759110471e-08,7.570286442160067963e-08,1.895299077033996582e+00,-1.638761349022388458e-02,-1.931787095963954926e-02
6.412000000000000000e+03,1.800000000000000000e+01,3.099999904632568359e+00,1.622326983863331407e-08,7.655579281617974630e-08,1.895283222198486328e+00,-1.638107001781463623e-02,-1.933196000754833221e-02
6.413000000000000000e+03,1.810000038146972656e+01,3.099999904632568359e+00,1.631375390331868402e-08,7.741347474166104803e-08,1.895265936851501465e+00,-1.637512259185314178e-02,-1.934751681983470917e-02
6.414000000000000000e+03,1.820000076293945312e+01,3.099999904632568359e+00,1.640423796800405398e-08,7.827591730347194243e-08,1.895247340202331543e+00,-1.637013815343379974e-02,-1.936455070972442627e-02
6.415000000000000000e+03,1.829999923706054688e+01,3.099999904632568359e+00,1.649472025633258454e-08,7.914310629075771431e-08,1.895227551460266113e+00,-1.636656560003757477e-02,-1.938263699412345886e-02
6.416000000000000000e+03,1.839999961853027344e+01,3.099999904632568359e+00,1.658520254466111510e-08,8.001506301980043645e-08,1.895206689834594727e+00,-1.636492833495140076e-02,-1.940281502902507782e-02
6.417000000000000000e+03,1.850000000000000000e+01,3.099999904632568359e+00,1.667568305663280626e-08,8.089178038517275127e-08,1.895185112953186035e+00,-1.636582799255847931e-02,-1.942372508347034454e-02
6.418000000000000000e+03,1.860000038146972656e+01,3.099999904632568359e+00,1.676616356860449741e-08,8.177325838687465875e-08,1.895163059234619141e+00,-1.636993698775768280e-02,-1.944543048739433289e-02
6.419000000000000000e+03,1.870000076293945312e+01,3.099999904632568359e+00,1.685664230421934917e-08,8.265949702490615891e-08,1.895141124725341797e+00,-1.637796685099601746e-02,-1.946746557950973511e-02
6.420000000000000000e+03,1.879999923706054688e+01,3.099999904632568359e+00,1.694711926347736153e-08,8.355046787755782134e-08,1.895119786262512207e+00,-1.639064587652683258e-02,-1.948880590498447418e-02
6.421000000000000000e+03,1.889999961853027344e+01,3.099999904632568359e+00,1.703759622273537389e-08,8.444622778824850684e-08,1.895099639892578125e+00,-1.640867441892623901e-02,-1.950977370142936707e-02
6.422000000000000000e+03,1.900000000000000000e+01,3.099999904632568359e+00,1.712807318199338624e-08,8.534673412441406981e-08,1.895081400871276855e+00,-1.643266156315803528e-02,-1.952817477285861969e-02
6.423000000000000000e+03,1.910000038146972656e+01,3.099999904632568359e+00,1.721855014125139860e-08,8.625200820233658305e-08,1.895065546035766602e+00,-1.646305434405803680e-02,-1.954314112663269043e-02
6.424000000000000000e+03,1.920000076293945312e+01,3.099999904632568359e+00,1.730902710050941096e-08,8.716204291658868897e-08,1.895052790641784668e+00,-1.650007255375385284e-02,-1.955322548747062683e-02
6.425000000000000000e+03,1.929999923706054688e+01,3.099999904632568359e+00,1.739950228341058391e-08,8.807681695088831475e-08,1.895043611526489258e+00,-1.654362119734287262e-02,-1.955644786357879639e-02
6.426000000000000000e+03,1.939999961853027344e+01,3.099999904632568359e+00,1.748997924266859627e-08,8.899638004322696361e-08,1.895038008689880371e+00,-1.659323647618293762e-02,-1.955229230225086212e-02
6.427000000000000000e+03,1.950000000000000000e+01,3.099999904632568359e+00,1.758045797828344803e-08,8.992069666646784754e-08,1.895036220550537109e+00,-1.664804667234420776e-02,-1.953795738518238068e-02
6.428000000000000000e+03,1.960000038146972656e+01,3.099999904632568359e+00,1.767093671389829979e-08,9.084978103146568174e-08,1.895037651062011719e+00,-1.670677214860916138e-02,-1.951233670115470886e-02
6.429000000000000000e+03,1.970000076293945312e+01,3.099999904632568359e+00,1.776141722586999094e-08,9.178363313822046621e-08,1.895041704177856445e+00,-1.676777750253677368e-02,-1.947422884404659271e-02
6.430000000000000000e+03,1.979999923706054688e+01,3.099999904632568359e+00,1.785189596148484270e-08,9.272223877587748575e-08,1.895047426223754883e+00,-1.682916097342967987e-02,-1.942247897386550903e-02
6.431000000000000000e+03,1.989999961853027344e+01,3.099999904632568359e+00,1.794237824981337326e-08,9.366562636614617077e-08,1.895053505897521973e+00,-1.688888669013977051e-02,-1.935799978673458099e-02
6.432000000000000000e+03,2.000000000000000000e+01,3.099999904632568359e+00,1.803286053814190382e-08,9.461378169817180606e-08,1.895058512687683105e+00,-1.694505289196968079e-02,-1.928000710904598236e-02
6.433000000000000000e+03,0.000000000000000000e+00,3.200000047683715820e+00,7.019662845630581445e-38,1.118288863353462636e-38,1.697547554969787598e+00,5.092642903327941895e-01,-2.432104051113128662e-01
6.434000000000000000e+03,1.000000014901161194e-01,3.200000047683715820e+00,7.356039388728419226e-11,-3.011176724632136370e-11,1.688429236412048340e+00,4.788697659969329834e-01,-2.755199372768402100e-01
6.435000000000000000e+03,2.000000029802322388e-01,3.200000047683715820e+00,1.479446704033549054e-10,-5.305718017711846812e-11,1.698130130767822266e+00,4.535346925258636475e-01,-2.505207657814025879e-01
6.436000000000000000e+03,3.000000119209289551e-01,3.200000047683715820e+00,2.231650558792708239e-10,-6.900491983374834604e-11,1.707951664924621582e+00,4.277457594871520996e-01,-2.274295985698699951e-01
6.437000000000000000e+03,4.000000059604644775e-01,3.200000047683715820e+00,2.992297243320507505e-10,-7.811052499251402992e-11,1.717847704887390137e+00,4.016311466693878174e-01,-2.061095386743545532e-01
6.438000000000000000e+03,5.000000000000000000e-01,3.200000047683715820e+00,3.761413402969537856e-10,-8.051651706475482229e-11,1.727748274803161621e+00,3.753490149974822998e-01,-1.864239722490310669e-01
6.439000000000000000e+03,6.000000238418579102e-01,3.200000047683715820e+00,4.538956988042741614e-10,-7.635312521125925400e-11,1.737564802169799805e+00,3.490780591964721680e-01,-1.682439893484115601e-01
6.440000000000000000e+03,6.999999880790710449e-01,3.200000047683715820e+00,5.324811702678289294e-10,-6.573955269040254734e-11,1.747198104858398438e+00,3.230072855949401855e-01,-1.514532417058944702e-01
6.441000000000000000e+03,8.000000119209289551e-01,3.200000047683715820e+00,6.118787698738969993e-10,-4.878538545360910916e-11,1.756546139717102051e+00,2.973260283470153809e-01,-1.359503567218780518e-01
6.442000000000000000e+03,8.999999761581420898e-01,3.200000047683715820e+00,6.920619077810385988e-10,-2.559221064235561727e-11,1.765511155128479004e+00,2.722151577472686768e-01,-1.216489300131797791e-01
6.443000000000000000e+03,1.000000000000000000e+00,3.200000047683715820e+00,7.729977768988760545e-10,3.745077165051569068e-12,1.774005413055419922e+00,2.478400766849517822e-01,-1.084761992096900940e-01
6.444000000000000000e+03,1.100000023841857910e+00,3.200000047683715820e+00,8.546479079996061046e-10,3.913697491086942648e-11,1.781955599784851074e+00,2.243458181619644165e-01,-9.637029469013214111e-02
6.445000000000000000e+03,1.200000047683715820e+00,3.200000047683715820e+00,9.369692799410245243e-10,8.049848287949856740e-11,1.789304614067077637e+00,2.018537819385528564e-01,-8.527750521898269653e-02
6.446000000000000000e+03,1.299999952316284180e+00,3.200000047683715820e+00,1.019915596423004445e-09,1.277483119288547186e-10,1.796012997627258301e+00,1.804606020450592041e-01,-7.514937222003936768e-02
6.447000000000000000e+03,1.399999976158142090e+00,3.200000047683715820e+00,1.103438784788579596e-09,1.808087290999793595e-10,1.802057743072509766e+00,1.602381020784378052e-01,-6.594043225049972534e-02
6.448000000000000000e+03,1.500000000000000000e+00,3.200000047683715820e+00,1.187489329090851697e-09,2.396048637276493309e-10,1.807431578636169434e+00,1.412346065044403076e-01,-5.760616436600685120e-02
6.449000000000000000e+03,1.600000023841857910e+00,3.200000047683715820e+00,1.272017824405224928e-09,3.040649954044738479e-10,1.812140583992004395e+00,1.234768107533454895e-01,-5.010202899575233459e-02
6.450000000000000000e+03,1.700000047683715820e+00,3.200000047683715820e+00,1.356975420918615782e-09,3.741202347917749194e-10,1.816201925277709961e+00,1.069721207022666931e-01,-4.338264837861061096e-02
6.451000000000000000e+03,1.799999952316284180e+00,3.200000047683715820e+00,1.442314823130175228e-09,4.497047734197678892e-10,1.819641947746276855e+00,9.171131253242492676e-02,-3.740160912275314331e-02
6.452000000000000000e+03,1.899999976158142090e+00,3.200000047683715820e+00,1.527990733940498558e-09,5.307561057321663611e-10,1.822494029998779297e+00,7.767102867364883423e-02,-3.211170807480812073e-02
6.453000000000000000e+03,2.000000000000000000e+00,3.200000047683715820e+00,1.613959854651625392e-09,6.172147237748504267e-10,1.824796438217163086e+00,6.481643021106719971e-02,-2.746502682566642761e-02
6.454000000000000000e+03,2.099999904632568359e+00,3.200000047683715820e+00,1.700181662123156912e-09,7.090242282181691280e-10,1.826590657234191895e+00,5.310354009270668030e-02,-2.341364510357379913e-02
6.455000000000000000e+03,2.200000047683715820e+00,3.200000047683715820e+00,1.786618741839163249e-09,8.061320500019064639e-10,1.827920079231262207e+00,4.248128831386566162e-02,-1.991014741361141205e-02
6.456000000000000000e+03,2.299999952316284180e+00,3.200000047683715820e+00,1.873235788707461325e-09,9.084881180676518397e-10,1.828828811645507812e+00,3.289362415671348572e-02,-1.690777577459812164e-02
6.457000000000000000e+03,2.400000095367431641e+00,3.200000047683715820e+00,1.960001494438756708e-09,1.016046580204488237e-09,1.829360604286193848e+00,2.428093738853931427e-02,-1.436152029782533646e-02
6.458000000000000000e+03,2.500000000000000000e+00,3.200000047683715820e+00,2.046886216078291909e-09,1.128763638114094192e-09,1.829558014869689941e+00,1.658172719180583954e-02,-1.222774107009172440e-02
6.459000000000000000e+03,2.599999904632568359e+00,3.200000047683715820e+00,2.133864418496500548e-09,1.246599712345641819e-09,1.829462051391601562e+00,9.733615443110466003e-03,-1.046521961688995361e-02
6.460000000000000000e+03,2.700000047683715820e+00,3.200000047683715820e+00,2.220912564965260572e-09,1.369518165539318488e-09,1.829111814498901367e+00,3.674424719065427780e-03,-9.034886956214904785e-03
6.461000000000000000e+03,2.799999952316284180e+00,3.200000047683715820e+00,2.308009783291709027e-09,1.497484136692150969e-09,1.828543663024902344e+00,-1.656973734498023987e-03,-7.899993099272251129e-03
6.462000000000000000e+03,2.900000095367431641e+00,3.200000047683715820e+00,2.395137865818242062e-09,1.630467205693264532e-09,1.827791571617126465e+00,-6.320125423371791840e-03,-7.026670966297388077e-03
6.463000000000000000e+03,3.000000000000000000e+00,3.200000047683715820e+00,2.482280603288700149e-09,1.768437840610204148e-09,1.826886773109436035e+00,-1.037238165736198425e-02,-6.383232772350311279e-03
6.464000000000000000e+03,3.099999904632568359e+00,3.200000047683715820e+00,2.569424228937577936e-09,1.911370395291100976e-09,1.825857996940612793e+00,-1.386861689388751984e-02,-5.940886214375495911e-03
6.465000000000000000e+03,3.200000047683715820e+00,3.200000047683715820e+00,2.656557196445419322e-09,2.059241221985530501e-09,1.824730992317199707e+00,-1.686092093586921692e-02,-5.673179402947425842e-03
6.466000000000000000e+03,3.299999952316284180e+00,3.200000047683715820e+00,2.743668847671187905e-09,2.212028116233000219e-09,1.823529124259948730e+00,-1.939840801060199738e-02,-5.555914714932441711e-03
6.467000000000000000e+03,3.400000095367431641e+00,3.200000047683715820e+00,2.830751411053711308e-09,2.369712204242091502e-09,1.822273015975952148e+00,-2.152716554701328278e-02,-5.567528307437896729e-03
6.468000000000000000e+03,3.500000000000000000e+00,3.200000047683715820e+00,2.917797559121027007e-09,2.532274834265990648e-09,1.820981025695800781e+00,-2.329016663134098053e-02,-5.688224919140338898e-03
6.469000000000000000e+03,3.599999904632568359e+00,3.200000047683715820e+00,3.004801518713406949e-09,2.699700463182352905e-09,1.819669127464294434e+00,-2.472732029855251312e-02,-5.900580901652574539e-03
6.470000000000000000e+03,3.700000047683715820e+00,3.200000047683715820e+00,3.091759515072567410e-09,2.871975102181067996e-09,1.818351507186889648e+00,-2.587550505995750427e-02,-6.188912782818078995e-03
6.471000000000000000e+03,3.799999952316284180e+00,3.200000047683715820e+00,3.178667551395619739e-09,3.049085206541235493e-09,1.817039966583251953e+00,-2.676864713430404663e-02,-6.539132446050643921e-03
6.472000000000000000e+03,3.900000095367431641e+00,3.200000047683715820e+00,3.265523629281119611e-09,3.231019674032609146e-09,1.815744876861572266e+00,-2.743784524500370026e-02,-6.939104292541742325e-03
6.473000000000000000e+03,4.000000000000000000e+00,3.200000047683715820e+00,3.352325750327622700e-09,3.417767846514152552e-09,1.814474701881408691e+00,-2.791148424148559570e-02,-7.377768866717815399e-03
6.474000000000000000e+03,4.099999904632568359e+00,3.200000047683715820e+00,3.439073470445919156e-09,3.609320620157063786e-09,1.813236474990844727e+00,-2.821537479758262634e-02,-7.845751009881496429e-03
6.475000000000000000e+03,4.199999809265136719e+00,3.200000047683715820e+00,3.525766123502194205e-09,3.805670001355565546e-09,1.812036275863647461e+00,-2.837289869785308838e-02,-8.334700949490070343e-03
6.476000000000000000e+03,4.300000190734863281e+00,3.200000047683715820e+00,3.612404597674867546e-09,4.006809994905324857e-09,1.810878396034240723e+00,-2.840515971183776855e-02,-8.837503381073474884e-03
6.477000000000000000e+03,4.400000095367431641e+00,3.200000047683715820e+00,3.698988448874729329e-09,4.212731941066749641e-09,1.809766411781311035e+00,-2.833113260567188263e-02,-9.347672574222087860e-03
6.478000000000000000e+03,4.500000000000000000e+00,3.200000047683715820e+00,3.785519453458618955e-09,4.423431398947741400e-09,1.808702945709228516e+00,-2.816781774163246155e-02,-9.860165417194366455e-03
6.479000000000000000e+03,4.599999904632568359e+00,3.200000047683715820e+00,3.871999165738770898e-09,4.638903927656201631e-09,1.807689785957336426e+00,-2.793038077652454376e-02,-1.037037372589111328e-02
6.480000000000000000e+03,4.699999809265136719e+00,3.200000047683715820e+00,3.958428251848999935e-09,4.859144642210821985e-09,1.806728005409240723e+00,-2.763229981064796448e-02,-1.087449211627244949e-02
6.481000000000000000e+03,4.800000190734863281e+00,3.200000047683715820e+00,4.044809820413775014e-09,5.084151322165553211e-09,1.805817961692810059e+00,-2.728550136089324951e-02,-1.136943884193897247e-02
6.482000000000000000e+03,4.900000095367431641e+00,3.200000047683715820e+00,4.131144315522305988e-09,5.313918638449877108e-09,1.804959654808044434e+00,-2.690050564706325531e-02,-1.185233052819967270e-02
6.483000000000000000e+03,5.000000000000000000e+00,3.200000047683715820e+00,4.217434845799061804e-09,5.548444814706954276e-09,1.804152369499206543e+00,-2.648652158677577972e-02,-1.232132688164710999e-02
6.484000000000000000e+03,5.099999904632568359e+00,3.200000047683715820e+00,4.303682743511672015e-09,5.787728074579945314e-09,1.803395509719848633e+00,-2.605159208178520203e-02,-1.277466863393783569e-02
6.485000000000000000e+03,5.199999809265136719e+00,3.200000047683715820e+00,4.389890673195395721e-09,6.031766197622800973e-09,1.802687644958496094e+00,-2.560269273817539215e-02,-1.321106590330600739e-02
6.486000000000000000e+03,5.300000190734863281e+00,3.200000047683715820e+00,4.476061299385492021e-09,6.280558739746311403e-09,1.802027344703674316e+00,-2.514583431184291840e-02,-1.362965349107980728e-02
6.487000000000000000e+03,5.400000095367431641e+00,3.200000047683715820e+00,4.562195066171170765e-09,6.534102148236797802e-09,1.801413178443908691e+00,-2.468617260456085205e-02,-1.402949541807174683e-02
6.488000000000000000e+03,5.500000000000000000e+00,3.200000047683715820e+00,4.648295526266110755e-09,6.792396867183470022e-09,1.800843000411987305e+00,-2.422807365655899048e-02,-1.441045198589563370e-02
6.489000000000000000e+03,5.599999904632568359e+00,3.200000047683715820e+00,4.734364456027151391e-09,7.055441120229488661e-09,1.800315141677856445e+00,-2.377521432936191559e-02,-1.477224286645650864e-02
6.490000000000000000e+03,5.699999809265136719e+00,3.200000047683715820e+00,4.820404075900341923e-09,7.323235795553273420e-09,1.799827575683593750e+00,-2.333065494894981384e-02,-1.511486060917377472e-02
6.491000000000000000e+03,5.800000190734863281e+00,3.200000047683715820e+00,4.906416162242521750e-09,7.595780004976404598e-09,1.799378275871276855e+00,-2.289690636098384857e-02,-1.543853897601366043e-02
6.492000000000000000e+03,5.900000095367431641e+00,3.200000047683715820e+00,4.992402047321320424e-09,7.873072860320462496e-09,1.798965215682983398e+00,-2.247599698603153229e-02,-1.574328914284706116e-02
6.493000000000000000e+03,6.000000000000000000e+00,3.200000047683715820e+00,5.078363951582787195e-09,8.155113917496237264e-09,1.798586249351501465e+00,-2.206952311098575592e-02,-1.602976582944393158e-02
6.494000000000000000e+03,6.099999904632568359e+00,3.200000047683715820e+00,5.164304095472971312e-09,8.441903176503728901e-09,1.798239350318908691e+00,-2.167871035635471344e-02,-1.629836484789848328e-02
6.495000000000000000e+03,6.199999809265136719e+00,3.200000047683715820e+00,5.250223811259502327e-09,8.733441525521357107e-09,1.797922730445861816e+00,-2.130446024239063263e-02,-1.654963195323944092e-02
6.496000000000000000e+03,6.300000190734863281e+00,3.200000047683715820e+00,5.336124875299219639e-09,9.029729852727541584e-09,1.797634124755859375e+00,-2.094738185405731201e-02,-1.678426563739776611e-02
6.497000000000000000e+03,6.400000095367431641e+00,3.200000047683715820e+00,5.422008619859752798e-09,9.330766381765442929e-09,1.797371864318847656e+00,-2.060785703361034393e-02,-1.700264215469360352e-02
6.498000000000000000e+03,6.500000000000000000e+00,3.200000047683715820e+00,5.507875933119521505e-09,9.636551112635061145e-09,1.797134160995483398e+00,-2.028604224324226379e-02,-1.720571145415306091e-02
6.499000000000000000e+03,6.599999904632568359e+00,3.200000047683715820e+00,5.593729035524575011e-09,9.947085821693235630e-09,1.796918988227844238e+00,-1.998192444443702698e-02,-1.739408820867538452e-02
6.500000000000000000e+03,6.699999809265136719e+00,3.200000047683715820e+00,5.679568815253333014e-09,1.026237050893996638e-08,1.796724915504455566e+00,-1.969533972442150116e-02,-1.756848953664302826e-02
6.501000000000000000e+03,6.800000190734863281e+00,3.200000047683715820e+00,5.765396604573425066e-09,1.058240695073209281e-08,1.796550273895263672e+00,-1.942599751055240631e-02,-1.772971637547016144e-02
6.502000000000000000e+03,6.900000095367431641e+00,3.200000047683715820e+00,5.851212847574061016e-09,1.090719248253435580e-08,1.796393632888793945e+00,-1.917350664734840393e-02,-1.787821575999259949e-02
6.503000000000000000e+03,7.000000000000000000e+00,3.200000047683715820e+00,5.937019320612080264e-09,1.123672888070359477e-08,1.796253323554992676e+00,-1.893739402294158936e-02,-1.801496744155883789e-02
6.504000000000000000e+03,7.099999904632568359e+00,3.200000047683715820e+00,6.022816467776692662e-09,1.157101614523980970e-08,1.796128153800964355e+00,-1.871711388230323792e-02,-1.814057864248752594e-02
6.505000000000000000e+03,7.199999809265136719e+00,3.200000047683715820e+00,6.108605177246317908e-09,1.191005605249984001e-08,1.796016812324523926e+00,-1.851207949221134186e-02,-1.825573481619358063e-02
6.506000000000000000e+03,7.300000190734863281e+00,3.200000047683715820e+00,6.194387225377795403e-09,1.225384860248368568e-08,1.795918107032775879e+00,-1.832165382802486420e-02,-1.836117915809154510e-02
6.507000000000000000e+03,7.400000095367431641e+00,3.200000047683715820e+00,6.280162168081915297e-09,1.260239290701292703e-08,1.795830965042114258e+00,-1.814518682658672333e-02,-1.845728792250156403e-02
6.508000000000000000e+03,7.500000000000000000e+00,3.200000047683715820e+00,6.365931337626307140e-09,1.295568896608756404e-08,1.795754194259643555e+00,-1.798200234770774841e-02,-1.854494400322437286e-02
6.509000000000000000e+03,7.599999904632568359e+00,3.200000047683715820e+00,6.451694734010970933e-09,1.331373944424285582e-08,1.795687079429626465e+00,-1.783141680061817169e-02,-1.862465217709541321e-02
6.510000000000000000e+03,7.699999809265136719e+00,3.200000047683715820e+00,6.537453689503536225e-09,1.367654256512196298e-08,1.795628428459167480e+00,-1.769274845719337463e-02,-1.869698427617549896e-02
6.511000000000000000e+03,7.800000190734863281e+00,3.200000047683715820e+00,6.623208648193212866e-09,1.404410276961698401e-08,1.795577645301818848e+00,-1.756531931459903717e-02,-1.876256056129932404e-02
6.512000000000000000e+03,7.900000095367431641e+00,3.200000047683715820e+00,6.708959165990791007e-09,1.441641384047898100e-08,1.795533776283264160e+00,-1.744846254587173462e-02,-1.882163062691688538e-02
6.513000000000000000e+03,8.000000000000000000e+00,3.200000047683715820e+00,6.794706575163900197e-09,1.479348110677847217e-08,1.795496225357055664e+00,-1.734152249991893768e-02,-1.887494698166847229e-02
6.514000000000000000e+03,8.100000381469726562e+00,3.200000047683715820e+00,6.880451763890960137e-09,1.517530456851545750e-08,1.795464277267456055e+00,-1.724386215209960938e-02,-1.892297714948654175e-02
6.515000000000000000e+03,8.199999809265136719e+00,3.200000047683715820e+00,6.966193399904341277e-09,1.556187889661941881e-08,1.795437335968017578e+00,-1.715486682951450348e-02,-1.896578446030616760e-02
6.516000000000000000e+03,8.300000190734863281e+00,3.200000047683715820e+00,7.051933259560883016e-09,1.595321386105297279e-08,1.795414805412292480e+00,-1.707394234836101532e-02,-1.900441385805606842e-02
6.517000000000000000e+03,8.399999618530273438e+00,3.200000047683715820e+00,7.137670898771375505e-09,1.634929880367508304e-08,1.795396327972412109e+00,-1.700051687657833099e-02,-1.903852075338363647e-02
6.518000000000000000e+03,8.500000000000000000e+00,3.200000047683715820e+00,7.223407649803448294e-09,1.675014615898362536e-08,1.795381426811218262e+00,-1.693404838442802429e-02,-1.906919293105602264e-02
6.519000000000000000e+03,8.600000381469726562e+00,3.200000047683715820e+00,7.309142624478681682e-09,1.715574704519440274e-08,1.795369505882263184e+00,-1.687401533126831055e-02,-1.909621432423591614e-02
6.520000000000000000e+03,8.699999809265136719e+00,3.200000047683715820e+00,7.394875822797075671e-09,1.756610323866425460e-08,1.795360326766967773e+00,-1.681992784142494202e-02,-1.911989785730838776e-02
6.521000000000000000e+03,8.800000190734863281e+00,3.200000047683715820e+00,7.480609021115469659e-09,1.798121829210685974e-08,1.795353531837463379e+00,-1.677131652832031250e-02,-1.914107799530029297e-02
6.522000000000000000e+03,8.899999618530273438e+00,3.200000047683715820e+00,7.566340443077024247e-09,1.840108687645169994e-08,1.795348763465881348e+00,-1.672774180769920349e-02,-1.915929652750492096e-02
6.523000000000000000e+03,9.000000000000000000e+00,3.200000047683715820e+00,7.652070976860159135e-09,1.882571787348297221e-08,1.795345783233642578e+00,-1.668878830969333649e-02,-1.917553134262561798e-02
6.524000000000000000e+03,9.100000381469726562e+00,3.200000047683715820e+00,7.737802398821713723e-09,1.925510417777331895e-08,1.795344352722167969e+00,-1.665406860411167145e-02,-1.918946206569671631e-02
6.525000000000000000e+03,9.199999809265136719e+00,3.200000047683715820e+00,7.823532044426428911e-09,1.968924578932274017e-08,1.795344233512878418e+00,-1.662321761250495911e-02,-1.920130476355552673e-02
6.526000000000000000e+03,9.300000190734863281e+00,3.200000047683715820e+00,7.909261690031144099e-09,2.012814803720175405e-08,1.795345187187194824e+00,-1.659589447081089020e-02,-1.921179704368114471e-02
6.527000000000000000e+03,9.399999618530273438e+00,3.200000047683715820e+00,7.994990447457439586e-09,2.057180381598300301e-08,1.795347094535827637e+00,-1.657178252935409546e-02,-1.922039128839969635e-02
6.528000000000000000e+03,9.500000000000000000e+00,3.200000047683715820e+00,8.080720093062154774e-09,2.102022200745068403e-08,1.795349717140197754e+00,-1.655058749020099640e-02,-1.922797970473766327e-02
6.529000000000000000e+03,9.600000381469726562e+00,3.200000047683715820e+00,8.166449738666869962e-09,2.147339728253427893e-08,1.795353055000305176e+00,-1.653203181922435760e-02,-1.923416741192340851e-02
6.530000000000000000e+03,9.699999809265136719e+00,3.200000047683715820e+00,8.252178496093165450e-09,2.193132786487694830e-08,1.795356869697570801e+00,-1.651586405932903290e-02,-1.923908852040767670e-02
6.531000000000000000e+03,9.800000190734863281e+00,3.200000047683715820e+00,8.337908141697880637e-09,2.239402085990604974e-08,1.795361042022705078e+00,-1.650185137987136841e-02,-1.924341917037963867e-02
6.532000000000000000e+03,9.899999618530273438e+00,3.200000047683715820e+00,8.423636899124176125e-09,2.286146738583738625e-08,1.795365452766418457e+00,-1.648977398872375488e-02,-1.924653910100460052e-02
6.533000000000000000e+03,1.000000000000000000e+01,3.200000047683715820e+00,8.509366544728891313e-09,2.333367632445515483e-08,1.795370101928710938e+00,-1.647943630814552307e-02,-1.924928463995456696e-02
6.534000000000000000e+03,1.010000038146972656e+01,3.200000047683715820e+00,8.595096190333606501e-09,2.381064412304567668e-08,1.795374989509582520e+00,-1.647065207362174988e-02,-1.925120316445827484e-02
6.535000000000000000e+03,1.019999980926513672e+01,3.200000047683715820e+00,8.680824947759901988e-09,2.429236545253843360e-08,1.795379877090454102e+00,-1.646325923502445221e-02,-1.925236359238624573e-02
6.536000000000000000e+03,1.030000019073486328e+01,3.200000047683715820e+00,8.766554593364617176e-09,2.477885097107446200e-08,1.795384764671325684e+00,-1.645709946751594543e-02,-1.925341971218585968e-02
6.537000000000000000e+03,1.039999961853027344e+01,3.200000047683715820e+00,8.852284238969332364e-09,2.527009002051272546e-08,1.795389652252197266e+00,-1.645203493535518646e-02,-1.925367303192615509e-02
6.538000000000000000e+03,1.050000000000000000e+01,3.200000047683715820e+00,8.938014772752467252e-09,2.576609148263742100e-08,1.795394539833068848e+00,-1.644793711602687836e-02,-1.925395429134368896e-02
6.539000000000000000e+03,1.060000038146972656e+01,3.200000047683715820e+00,9.023745306535602140e-09,2.626685358109170920e-08,1.795399308204650879e+00,-1.644469425082206726e-02,-1.925373822450637817e-02
6.540000000000000000e+03,1.069999980926513672e+01,3.200000047683715820e+00,9.109474952140317328e-09,2.677236921044823248e-08,1.795403957366943359e+00,-1.644219644367694855e-02,-1.925307512283325195e-02
6.541000000000000000e+03,1.080000019073486328e+01,3.200000047683715820e+00,9.195205485923452216e-09,2.728264725249118783e-08,1.795408368110656738e+00,-1.644035242497920990e-02,-1.925258710980415344e-02
6.542000000000000000e+03,1.089999961853027344e+01,3.200000047683715820e+00,9.280936019706587103e-09,2.779768060179321765e-08,1.795412778854370117e+00,-1.643907465040683746e-02,-1.925154216587543488e-02
6.543000000000000000e+03,1.100000000000000000e+01,3.200000047683715820e+00,9.366666553489721991e-09,2.831747636378167954e-08,1.795416951179504395e+00,-1.643828675150871277e-02,-1.925074122846126556e-02
6.544000000000000000e+03,1.110000038146972656e+01,3.200000047683715820e+00,9.452397975451276579e-09,2.884203276209973410e-08,1.795421004295349121e+00,-1.643791981041431427e-02,-1.924964040517807007e-02
6.545000000000000000e+03,1.119999980926513672e+01,3.200000047683715820e+00,9.538129397412831167e-09,2.937134269132002373e-08,1.795424818992614746e+00,-1.643791049718856812e-02,-1.924826391041278839e-02
6.546000000000000000e+03,1.130000019073486328e+01,3.200000047683715820e+00,9.623860819374385756e-09,2.990541503322674544e-08,1.795428395271301270e+00,-1.643820293247699738e-02,-1.924721337854862213e-02
6.547000000000000000e+03,1.139999961853027344e+01,3.200000047683715820e+00,9.709592241335940344e-09,3.044424445874938101e-08,1.795431852340698242e+00,-1.643875055015087128e-02,-1.924573630094528198e-02
6.548000000000000000e+03,1.150000000000000000e+01,3.200000047683715820e+00,9.795323663297494932e-09,3.098783452060160926e-08,1.795435070991516113e+00,-1.643950678408145905e-02,-1.924462057650089264e-02
6.549000000000000000e+03,1.160000038146972656e+01,3.200000047683715820e+00,9.881055973437469220e-09,3.153618521878343017e-08,1.795438170433044434e+00,-1.644043438136577606e-02,-1.924330368638038635e-02
6.550000000000000000e+03,1.169999980926513672e+01,3.200000047683715820e+00,9.966787395399023808e-09,3.208928944786748616e-08,1.795441031455993652e+00,-1.644149795174598694e-02,-1.924179866909980774e-02
6.551000000000000000e+03,1.180000019073486328e+01,3.200000047683715820e+00,1.005252059371741780e-08,3.264715786599481362e-08,1.795443773269653320e+00,-1.644266769289970398e-02,-1.924069225788116455e-02
6.552000000000000000e+03,1.189999961853027344e+01,3.200000047683715820e+00,1.013825201567897238e-08,3.320978336773805495e-08,1.795446276664733887e+00,-1.644391752779483795e-02,-1.923922263085842133e-02
6.553000000000000000e+03,1.200000000000000000e+01,3.200000047683715820e+00,1.022398521399736637e-08,3.377716950581088895e-08,1.795448660850524902e+00,-1.644522510468959808e-02,-1.923816837370395660e-02
6.554000000000000000e+03,1.210000038146972656e+01,3.200000047683715820e+00,1.030971841231576036e-08,3.434931628021331562e-08,1.795450925827026367e+00,-1.644656993448734283e-02,-1.923695765435695648e-02
6.555000000000000000e+03,1.219999980926513672e+01,3.200000047683715820e+00,1.039544983427731495e-08,3.492621658551797736e-08,1.795452952384948730e+00,-1.644793525338172913e-02,-1.923559419810771942e-02
6.556000000000000000e+03,1.230000019073486328e+01,3.200000047683715820e+00,1.048118303259570894e-08,3.550788107986591058e-08,1.795454859733581543e+00,-1.644930802285671234e-02,-1.923465915024280548e-02
6.557000000000000000e+03,1.239999961853027344e+01,3.200000047683715820e+00,1.056691623091410293e-08,3.609429910511607886e-08,1.795456647872924805e+00,-1.645067147910594940e-02,-1.923338510096073151e-02
6.558000000000000000e+03,1.250000000000000000e+01,3.200000047683715820e+00,1.065264942923249691e-08,3.668548131940951862e-08,1.795458316802978516e+00,-1.645202003419399261e-02,-1.923254504799842834e-02
6.559000000000000000e+03,1.260000038146972656e+01,3.200000047683715820e+00,1.073838262755089090e-08,3.728142061731887225e-08,1.795459747314453125e+00,-1.645334064960479736e-02,-1.923155970871448517e-02
6.560000000000000000e+03,1.269999980926513672e+01,3.200000047683715820e+00,1.082411582586928489e-08,3.788211699884413974e-08,1.795461177825927734e+00,-1.645462960004806519e-02,-1.923043467104434967e-02
6.561000000000000000e+03,1.280000019073486328e+01,3.200000047683715820e+00,1.090984902418767888e-08,3.848757756941267871e-08,1.795462489128112793e+00,-1.645588129758834839e-02,-1.922974176704883575e-02
6.562000000000000000e+03,1.289999961853027344e+01,3.200000047683715820e+00,1.099558222250607287e-08,3.909779167088345275e-08,1.795463562011718750e+00,-1.645708829164505005e-02,-1.922871358692646027e-02
6.563000000000000000e+03,1.300000000000000000e+01,3.200000047683715820e+00,1.108131542082446686e-08,3.971276996139749826e-08,1.795464634895324707e+00,-1.645824871957302094e-02,-1.922811940312385559e-02
6.564000000000000000e+03,1.310000038146972656e+01,3.200000047683715820e+00,1.116704950732128054e-08,4.033250533552745765e-08,1.795465707778930664e+00,-1.645935885608196259e-02,-1.922737993299961090e-02
6.565000000000000000e+03,1.319999980926513672e+01,3.200000047683715820e+00,1.125278270563967453e-08,4.095699779327333090e-08,1.795466542243957520e+00,-1.646041683852672577e-02,-1.922649517655372620e-02
6.566000000000000000e+03,1.330000019073486328e+01,3.200000047683715820e+00,1.133851679213648822e-08,4.158625088734879682e-08,1.795467376708984375e+00,-1.646142452955245972e-02,-1.922604069113731384e-02
6.567000000000000000e+03,1.339999961853027344e+01,3.200000047683715820e+00,1.142424999045488221e-08,4.222026106504017662e-08,1.795468091964721680e+00,-1.646237634122371674e-02,-1.922524347901344299e-02
6.568000000000000000e+03,1.350000000000000000e+01,3.200000047683715820e+00,1.150998407695169590e-08,4.285903543177482788e-08,1.795468807220458984e+00,-1.646327413618564606e-02,-1.922487281262874603e-02
6.569000000000000000e+03,1.360000038146972656e+01,3.200000047683715820e+00,1.159571816344850959e-08,4.350256688212539302e-08,1.795469403266906738e+00,-1.646411791443824768e-02,-1.922434940934181213e-02
6.570000000000000000e+03,1.369999980926513672e+01,3.200000047683715820e+00,1.168145136176690357e-08,4.415085541609187203e-08,1.795469880104064941e+00,-1.646490953862667084e-02,-1.922367326915264130e-02
6.571000000000000000e+03,1.380000019073486328e+01,3.200000047683715820e+00,1.176718544826371726e-08,4.480390458638794371e-08,1.795470356941223145e+00,-1.646564528346061707e-02,-1.922341808676719666e-02
6.572000000000000000e+03,1.389999961853027344e+01,3.200000047683715820e+00,1.185291864658211125e-08,4.546171084029992926e-08,1.795470833778381348e+00,-1.646632887423038483e-02,-1.922281272709369659e-02
6.573000000000000000e+03,1.400000000000000000e+01,3.200000047683715820e+00,1.193865273307892494e-08,4.612427773054150748e-08,1.795471191406250000e+00,-1.646695844829082489e-02,-1.922262459993362427e-02
6.574000000000000000e+03,1.410000038146972656e+01,3.200000047683715820e+00,1.202438681957573863e-08,4.679160880982635717e-08,1.795471549034118652e+00,-1.646753586828708649e-02,-1.922227814793586731e-02
6.575000000000000000e+03,1.419999980926513672e+01,3.200000047683715820e+00,1.211012001789413262e-08,4.746368986729976314e-08,1.795471906661987305e+00,-1.646805927157402039e-02,-1.922176778316497803e-02
6.576000000000000000e+03,1.430000019073486328e+01,3.200000047683715820e+00,1.219585499256936600e-08,4.814053511381644057e-08,1.795472145080566406e+00,-1.646853238344192505e-02,-1.922167278826236725e-02
6.577000000000000000e+03,1.439999961853027344e+01,3.200000047683715820e+00,1.228158819088775999e-08,4.882213389123535308e-08,1.795472383499145508e+00,-1.646894961595535278e-02,-1.922122389078140259e-02
6.578000000000000000e+03,1.450000000000000000e+01,3.200000047683715820e+00,1.236732227738457368e-08,4.950850041041121585e-08,1.795472621917724609e+00,-1.646931469440460205e-02,-1.922118663787841797e-02
6.579000000000000000e+03,1.460000038146972656e+01,3.200000047683715820e+00,1.245305636388138737e-08,5.019962401320299250e-08,1.795472741127014160e+00,-1.646962203085422516e-02,-1.922098547220230103e-02
6.580000000000000000e+03,1.469999980926513672e+01,3.200000047683715820e+00,1.253879045037820106e-08,5.089550114689700422e-08,1.795472860336303711e+00,-1.646987348794937134e-02,-1.922062039375305176e-02
6.581000000000000000e+03,1.480000019073486328e+01,3.200000047683715820e+00,1.262452453687501475e-08,5.159614246963428741e-08,1.795472979545593262e+00,-1.647006347775459290e-02,-1.922066882252693176e-02
6.582000000000000000e+03,1.489999961853027344e+01,3.200000047683715820e+00,1.271025773519340873e-08,5.230153732327380567e-08,1.795473098754882812e+00,-1.647019013762474060e-02,-1.922036148607730865e-02
6.583000000000000000e+03,1.500000000000000000e+01,3.200000047683715820e+00,1.279599270986864212e-08,5.301169991867027420e-08,1.795473098754882812e+00,-1.647024974226951599e-02,-1.922047138214111328e-02
6.584000000000000000e+03,1.510000038146972656e+01,3.200000047683715820e+00,1.288172679636545581e-08,5.372661959768265660e-08,1.795472979545593262e+00,-1.647023484110832214e-02,-1.922042481601238251e-02
6.585000000000000000e+03,1.519999980926513672e+01,3.200000047683715820e+00,1.296745999468384980e-08,5.444628925488359528e-08,1.795472979545593262e+00,-1.647013984620571136e-02,-1.922022178769111633e-02
6.586000000000000000e+03,1.530000019073486328e+01,3.200000047683715820e+00,1.305319496935908319e-08,5.517073020655516302e-08,1.795472741127014160e+00,-1.646995730698108673e-02,-1.922044344246387482e-02
6.587000000000000000e+03,1.539999961853027344e+01,3.200000047683715820e+00,1.313892816767747718e-08,5.589991758370160824e-08,1.795472621917724609e+00,-1.646967791020870209e-02,-1.922032795846462250e-02
6.588000000000000000e+03,1.550000000000000000e+01,3.200000047683715820e+00,1.322466225417429087e-08,5.663387625531868252e-08,1.795472264289855957e+00,-1.646928861737251282e-02,-1.922065019607543945e-02
6.589000000000000000e+03,1.560000038146972656e+01,3.200000047683715820e+00,1.331039634067110455e-08,5.737259201055167068e-08,1.795471906661987305e+00,-1.646878197789192200e-02,-1.922083832323551178e-02
6.590000000000000000e+03,1.569999980926513672e+01,3.200000047683715820e+00,1.339613042716791824e-08,5.811605774397321511e-08,1.795471429824829102e+00,-1.646813750267028809e-02,-1.922090351581573486e-02
6.591000000000000000e+03,1.580000019073486328e+01,3.200000047683715820e+00,1.348186451366473193e-08,5.886429121915170981e-08,1.795470833778381348e+00,-1.646734401583671570e-02,-1.922143064439296722e-02
6.592000000000000000e+03,1.589999961853027344e+01,3.200000047683715820e+00,1.356759771198312592e-08,5.961727822523243958e-08,1.795470118522644043e+00,-1.646638102829456329e-02,-1.922166720032691956e-02
6.593000000000000000e+03,1.600000000000000000e+01,3.200000047683715820e+00,1.365333179847993961e-08,6.037502942035644082e-08,1.795469164848327637e+00,-1.646522618830204010e-02,-1.922239549458026886e-02
6.594000000000000000e+03,1.610000038146972656e+01,3.200000047683715820e+00,1.373906588497675330e-08,6.113754125181003474e-08,1.795468091964721680e+00,-1.646385714411735535e-02,-1.922305487096309662e-02
6.595000000000000000e+03,1.620000076293945312e+01,3.200000047683715820e+00,1.382479997147356698e-08,6.190480661416586372e-08,1.795466780662536621e+00,-1.646225154399871826e-02,-1.922385767102241516e-02
6.596000000000000000e+03,1.629999923706054688e+01,3.200000047683715820e+00,1.391053139343512157e-08,6.267681840199657017e-08,1.795465111732482910e+00,-1.646037772297859192e-02,-1.922444626688957214e-02
6.597000000000000000e+03,1.639999961853027344e+01,3.200000047683715820e+00,1.399626547993193526e-08,6.345360503701158450e-08,1.795463204383850098e+00,-1.645820774137973785e-02,-1.922599598765373230e-02
6.598000000000000000e+03,1.650000000000000000e+01,3.200000047683715820e+00,1.408199867825032925e-08,6.423515230835619150e-08,1.795460939407348633e+00,-1.645570807158946991e-02,-1.922738924622535706e-02
6.599000000000000000e+03,1.660000038146972656e+01,3.200000047683715820e+00,1.416773276474714294e-08,6.502146021603039117e-08,1.795458316802978516e+00,-1.645284891128540039e-02,-1.922904327511787415e-02
6.600000000000000000e+03,1.670000076293945312e+01,3.200000047683715820e+00,1.425346596306553693e-08,6.581252165460682590e-08,1.795455098152160645e+00,-1.644959300756454468e-02,-1.923100091516971588e-02
6.601000000000000000e+03,1.679999923706054688e+01,3.200000047683715820e+00,1.433919649684867181e-08,6.660832951865813811e-08,1.795451402664184570e+00,-1.644590683281421661e-02,-1.923292502760887146e-02
6.602000000000000000e+03,1.689999961853027344e+01,3.200000047683715820e+00,1.442492969516706580e-08,6.740891222989375819e-08,1.795446991920471191e+00,-1.644175872206687927e-02,-1.923601888120174408e-02
6.603000000000000000e+03,1.700000000000000000e+01,3.200000047683715820e+00,1.451066200530704009e-08,6.821425557745897095e-08,1.795441985130310059e+00,-1.643711887300014496e-02,-1.923918910324573517e-02
6.604000000000000000e+03,1.710000038146972656e+01,3.200000047683715820e+00,1.459639431544701438e-08,6.902435956135377637e-08,1.795436024665832520e+00,-1.643196120858192444e-02,-1.924288831651210785e-02
6.605000000000000000e+03,1.720000076293945312e+01,3.200000047683715820e+00,1.468212573740856897e-08,6.983921707615081687e-08,1.795429229736328125e+00,-1.642626896500587463e-02,-1.924718916416168213e-02
6.606000000000000000e+03,1.729999923706054688e+01,3.200000047683715820e+00,1.476785538301328415e-08,7.065881391099537723e-08,1.795421481132507324e+00,-1.642004027962684631e-02,-1.925179176032543182e-02
6.607000000000000000e+03,1.739999961853027344e+01,3.200000047683715820e+00,1.485358591679641904e-08,7.148319269845160306e-08,1.795412540435791016e+00,-1.641328074038028717e-02,-1.925793848931789398e-02
6.608000000000000000e+03,1.750000000000000000e+01,3.200000047683715820e+00,1.493931556240113423e-08,7.231232501681006397e-08,1.795402407646179199e+00,-1.640602573752403259e-02,-1.926457509398460388e-02
6.609000000000000000e+03,1.760000038146972656e+01,3.200000047683715820e+00,1.502504431982742972e-08,7.314622507692547515e-08,1.795390844345092773e+00,-1.639833301305770874e-02,-1.927219144999980927e-02
6.610000000000000000e+03,1.770000076293945312e+01,3.200000047683715820e+00,1.511077307725372521e-08,7.398487156251576380e-08,1.795377850532531738e+00,-1.639029569923877716e-02,-1.928089745342731476e-02
6.611000000000000000e+03,1.779999923706054688e+01,3.200000047683715820e+00,1.519650005832318129e-08,7.482826447358092992e-08,1.795363306999206543e+00,-1.638205535709857941e-02,-1.929042488336563110e-02
6.612000000000000000e+03,1.789999961853027344e+01,3.200000047683715820e+00,1.528222703939263738e-08,7.567643933725776151e-08,1.795347094535827637e+00,-1.637380197644233704e-02,-1.930204220116138458e-02
6.613000000000000000e+03,1.800000000000000000e+01,3.200000047683715820e+00,1.536795224410525407e-08,7.652936062640947057e-08,1.795329213142395020e+00,-1.636579073965549469e-02,-1.931470260024070740e-02
6.614000000000000000e+03,1.810000038146972656e+01,3.200000047683715820e+00,1.545367744881787075e-08,7.738704965731812990e-08,1.795309662818908691e+00,-1.635835878551006317e-02,-1.932888291776180267e-02
6.615000000000000000e+03,1.820000076293945312e+01,3.200000047683715820e+00,1.553940265353048744e-08,7.824949221912902431e-08,1.795288324356079102e+00,-1.635192148387432098e-02,-1.934465393424034119e-02
6.616000000000000000e+03,1.829999923706054688e+01,3.200000047683715820e+00,1.562512252917258593e-08,7.911668120641479618e-08,1.795265555381774902e+00,-1.634699665009975433e-02,-1.936165988445281982e-02
6.617000000000000000e+03,1.839999961853027344e+01,3.200000047683715820e+00,1.571084418117152381e-08,7.998863793545751832e-08,1.795241355895996094e+00,-1.634419709444046021e-02,-1.938102021813392639e-02
6.618000000000000000e+03,1.850000000000000000e+01,3.200000047683715820e+00,1.579656405681362230e-08,8.086535530082983314e-08,1.795215964317321777e+00,-1.634424366056919098e-02,-1.940146833658218384e-02
6.619000000000000000e+03,1.860000038146972656e+01,3.200000047683715820e+00,1.588228393245572079e-08,8.174683330253174063e-08,1.795189976692199707e+00,-1.634794846177101135e-02,-1.942315883934497833e-02
6.620000000000000000e+03,1.870000076293945312e+01,3.200000047683715820e+00,1.596800203174097987e-08,8.263307194056324079e-08,1.795163750648498535e+00,-1.635619625449180603e-02,-1.944571174681186676e-02
6.621000000000000000e+03,1.879999923706054688e+01,3.200000047683715820e+00,1.605371657831256016e-08,8.352404989864226081e-08,1.795138001441955566e+00,-1.636991277337074280e-02,-1.946818083524703979e-02
6.622000000000000000e+03,1.889999961853027344e+01,3.200000047683715820e+00,1.613943290124097985e-08,8.441980270390558871e-08,1.795113325119018555e+00,-1.639001443982124329e-02,-1.949093304574489594e-02
6.623000000000000000e+03,1.900000000000000000e+01,3.200000047683715820e+00,1.622514922416939953e-08,8.532030904007115168e-08,1.795090675354003906e+00,-1.641732826828956604e-02,-1.951178163290023804e-02
6.624000000000000000e+03,1.910000038146972656e+01,3.200000047683715820e+00,1.631086377074097982e-08,8.622558311799366493e-08,1.795070648193359375e+00,-1.645250990986824036e-02,-1.952980272471904755e-02
6.625000000000000000e+03,1.920000076293945312e+01,3.200000047683715820e+00,1.639657831731256010e-08,8.713561072681841324e-08,1.795054316520690918e+00,-1.649593934416770935e-02,-1.954342611134052277e-02
6.626000000000000000e+03,1.929999923706054688e+01,3.200000047683715820e+00,1.648229108752730099e-08,8.805039186654539662e-08,1.795042037963867188e+00,-1.654760912060737610e-02,-1.955047249794006348e-02
6.627000000000000000e+03,1.939999961853027344e+01,3.200000047683715820e+00,1.656800741045572067e-08,8.896994074802933028e-08,1.795034289360046387e+00,-1.660704426467418671e-02,-1.955015026032924652e-02
6.628000000000000000e+03,1.950000000000000000e+01,3.200000047683715820e+00,1.665372373338414036e-08,8.989425737127021421e-08,1.795031070709228516e+00,-1.667322218418121338e-02,-1.953933015465736389e-02
6.629000000000000000e+03,1.960000038146972656e+01,3.200000047683715820e+00,1.673944005631256005e-08,9.082334173626804841e-08,1.795032143592834473e+00,-1.674457080662250519e-02,-1.951655372977256775e-02
6.630000000000000000e+03,1.970000076293945312e+01,3.200000047683715820e+00,1.682515815559781913e-08,9.175719384302283288e-08,1.795036673545837402e+00,-1.681901328265666962e-02,-1.948029175400733948e-02
6.631000000000000000e+03,1.979999923706054688e+01,3.200000047683715820e+00,1.691087625488307822e-08,9.269578526982513722e-08,1.795043230056762695e+00,-1.689409650862216949e-02,-1.942912675440311432e-02
6.632000000000000000e+03,1.989999961853027344e+01,3.200000047683715820e+00,1.699659790688201610e-08,9.363917286009382224e-08,1.795050501823425293e+00,-1.696718484163284302e-02,-1.936382800340652466e-02
6.633000000000000000e+03,2.000000000000000000e+01,3.200000047683715820e+00,1.708232133523779339e-08,9.458732819211945753e-08,1.795056581497192383e+00,-1.703567802906036377e-02,-1.928358897566795349e-02
6.634000000000000000e+03,0.000000000000000000e+00,3.299999952316284180e+00,6.516694787830474854e-38,9.382207495191057498e-39,1.605650544166564941e+00,4.816951751708984375e-01,-2.529558241367340088e-01
6.635000000000000000e+03,1.000000014901161194e-01,3.299999952316284180e+00,6.957819043140744952e-11,-3.131834028224922406e-11,1.597297310829162598e+00,4.538511335849761963e-01,-2.851198017597198486e-01
6.636000000000000000e+03,2.000000029802322388e-01,3.299999952316284180e+00,1.399100002519304553e-10,-5.550490622674431052e-11,1.606095910072326660e+00,4.304264485836029053e-01,-2.602485418319702148e-01
6.637000000000000000e+03,3.000000119209289551e-01,3.299999952316284180e+00,2.110116942288797759e-10,-7.272438207195364157e-11,1.615057826042175293e+00,4.064085185527801514e-01,-2.372422963380813599e-01
6.638000000000000000e+03,4.000000059604644775e-01,3.299999952316284180e+00,2.828957068601312130e-10,-8.312557586709345969e-11,1.624142527580261230e+00,3.819266259670257568e-01,-2.159384340047836304e-01
6.639000000000000000e+03,5.000000000000000000e-01,3.299999952316284180e+00,3.555687688727715567e-10,-8.684203356423836340e-11,1.633278369903564453e+00,3.571475744247436523e-01,-1.961807906627655029e-01
6.640000000000000000e+03,6.000000238418579102e-01,3.299999952316284180e+00,4.290303112775006866e-10,-8.399349271659417582e-11,1.642371296882629395e+00,3.322634994983673096e-01,-1.778286099433898926e-01
6.641000000000000000e+03,6.999999880790710449e-01,3.299999952316284180e+00,5.032717576014533734e-10,-7.468788781883617389e-11,1.651314258575439453e+00,3.074790537357330322e-01,-1.607620120048522949e-01
6.642000000000000000e+03,8.000000119209289551e-01,3.299999952316284180e+00,5.782764267436846239e-10,-5.902348748643149179e-11,1.659997463226318359e+00,2.829989492893218994e-01,-1.448836177587509155e-01
6.643000000000000000e+03,8.999999761581420898e-01,3.299999952316284180e+00,6.540198382865014537e-10,-3.709112531002922708e-11,1.668317437171936035e+00,2.590177655220031738e-01,-1.301171779632568359e-01
6.644000000000000000e+03,1.000000000000000000e+00,3.299999952316284180e+00,7.304707394517606645e-10,-8.976007437322408578e-12,1.676182746887207031e+00,2.357117831707000732e-01,-1.164043322205543518e-01
6.645000000000000000e+03,1.100000023841857910e+00,3.299999952316284180e+00,8.075921598127422385e-10,2.524070535914191282e-11,1.683519601821899414e+00,2.132339030504226685e-01,-1.037001088261604309e-01
6.646000000000000000e+03,1.200000047683715820e+00,3.299999952316284180e+00,8.853426325394764262e-10,6.548081521451365461e-11,1.690272808074951172e+00,1.917105466127395630e-01,-9.196846187114715576e-02
6.647000000000000000e+03,1.299999952316284180e+00,3.299999952316284180e+00,9.636775821775245277e-10,1.116682857293938014e-10,1.696406483650207520e+00,1.712409406900405884e-01,-8.117806166410446167e-02
6.648000000000000000e+03,1.399999976158142090e+00,3.299999952316284180e+00,1.042550601404457211e-09,1.637290719669337591e-10,1.701902508735656738e+00,1.518976837396621704e-01,-7.129912823438644409e-02
6.649000000000000000e+03,1.500000000000000000e+00,3.299999952316284180e+00,1.121914450230576676e-09,2.215906624858376972e-10,1.706758737564086914e+00,1.337287575006484985e-01,-6.230080872774124146e-02
6.650000000000000000e+03,1.600000023841857910e+00,3.299999952316284180e+00,1.201721944177336354e-09,2.851823499572248011e-10,1.710986018180847168e+00,1.167598739266395569e-01,-5.414997041225433350e-02
6.651000000000000000e+03,1.700000047683715820e+00,3.299999952316284180e+00,1.281927008989214301e-09,3.544352866757805032e-10,1.714605927467346191e+00,1.009973287582397461e-01,-4.681035503745079041e-02
6.652000000000000000e+03,1.799999952316284180e+00,3.299999952316284180e+00,1.362485013700620584e-09,4.292827204821492160e-10,1.717648029327392578e+00,8.643091470003128052e-02,-4.024250060319900513e-02
6.653000000000000000e+03,1.899999976158142090e+00,3.299999952316284180e+00,1.443353436769712062e-09,5.096605359966588367e-10,1.720147728919982910e+00,7.303667813539505005e-02,-3.440416604280471802e-02
6.654000000000000000e+03,2.000000000000000000e+00,3.299999952316284180e+00,1.524492088122997302e-09,5.955069215524133597e-10,1.722144246101379395e+00,6.077970564365386963e-02,-2.925070375204086304e-02
6.655000000000000000e+03,2.099999904632568359e+00,3.299999952316284180e+00,1.605863109155336588e-09,6.867629243068051892e-10,1.723679065704345703e+00,4.961645230650901794e-02,-2.473600581288337708e-02
6.656000000000000000e+03,2.200000047683715820e+00,3.299999952316284180e+00,1.687432082952966539e-09,7.833729220863006049e-10,1.724794626235961914e+00,3.949680924415588379e-02,-2.081326395273208618e-02
6.657000000000000000e+03,2.299999952316284180e+00,3.299999952316284180e+00,1.769166368958963176e-09,8.852836796968688304e-10,1.725533127784729004e+00,3.036613948643207550e-02,-1.743537373840808868e-02
6.658000000000000000e+03,2.400000095367431641e+00,3.299999952316284180e+00,1.851037323419291170e-09,9.924459032362165090e-10,1.725936055183410645e+00,2.216665633022785187e-02,-1.455621421337127686e-02
6.659000000000000000e+03,2.500000000000000000e+00,3.299999952316284180e+00,1.933017745869847204e-09,1.104812574759250765e-09,1.726043105125427246e+00,1.483897212892770767e-02,-1.213046070188283920e-02
6.660000000000000000e+03,2.599999904632568359e+00,3.299999952316284180e+00,2.015084099582509225e-09,1.222340451079162449e-09,1.725892305374145508e+00,8.323060348629951477e-03,-1.011479180306196213e-02
6.661000000000000000e+03,2.700000047683715820e+00,3.299999952316284180e+00,2.097215290319809355e-09,1.344989786211669980e-09,1.725519061088562012e+00,2.559244865551590919e-03,-8.467736653983592987e-03
6.662000000000000000e+03,2.799999952316284180e+00,3.299999952316284180e+00,2.179391778156514192e-09,1.472722388484726252e-09,1.724956631660461426e+00,-2.511020516976714134e-03,-7.149959448724985123e-03
6.663000000000000000e+03,2.900000095367431641e+00,3.299999952316284180e+00,2.261597575881069133e-09,1.605504507118382662e-09,1.724235534667968750e+00,-6.944674067199230194e-03,-6.124911829829216003e-03
6.664000000000000000e+03,3.000000000000000000e+00,3.299999952316284180e+00,2.343817584460339276e-09,1.743303945644925079e-09,1.723383784294128418e+00,-1.079648640006780624e-02,-5.358190275728702545e-03
6.665000000000000000e+03,3.099999904632568359e+00,3.299999952316284180e+00,2.426039591441053744e-09,1.886091949288015712e-09,1.722427010536193848e+00,-1.411881577223539352e-02,-4.818316083401441574e-03
6.666000000000000000e+03,3.200000047683715820e+00,3.299999952316284180e+00,2.508252938682176136e-09,2.033842427806575870e-09,1.721387863159179688e+00,-1.696132682263851166e-02,-4.476218484342098236e-03
6.667000000000000000e+03,3.299999952316284180e+00,3.299999952316284180e+00,2.590448078265694676e-09,2.186530290160249024e-09,1.720286846160888672e+00,-1.937082596123218536e-02,-4.305182490497827530e-03
6.668000000000000000e+03,3.400000095367431641e+00,3.299999952316284180e+00,2.672617682719646837e-09,2.344134442111567296e-09,1.719142436981201172e+00,-2.139121852815151215e-02,-4.281253553926944733e-03
6.669000000000000000e+03,3.500000000000000000e+00,3.299999952316284180e+00,2.754755090705884868e-09,2.506634011467667733e-09,1.717970371246337891e+00,-2.306344173848628998e-02,-4.382384475320577621e-03
6.670000000000000000e+03,3.599999904632568359e+00,3.299999952316284180e+00,2.836855639287705344e-09,2.674011900793971108e-09,1.716784834861755371e+00,-2.442550286650657654e-02,-4.589052870869636536e-03
6.671000000000000000e+03,3.700000047683715820e+00,3.299999952316284180e+00,2.918915331662219614e-09,2.846251678789712969e-09,1.715597867965698242e+00,-2.551252581179141998e-02,-4.883633460849523544e-03
6.672000000000000000e+03,3.799999952316284180e+00,3.299999952316284180e+00,3.000930837160353803e-09,3.023338246421758413e-09,1.714419722557067871e+00,-2.635682560503482819e-02,-5.250254645943641663e-03
6.673000000000000000e+03,3.900000095367431641e+00,3.299999952316284180e+00,3.082900379425268511e-09,3.205259391236836564e-09,1.713259339332580566e+00,-2.698802389204502106e-02,-5.675155203789472580e-03
6.674000000000000000e+03,4.000000000000000000e+00,3.299999952316284180e+00,3.164821738010914487e-09,3.392002678737071619e-09,1.712123990058898926e+00,-2.743315882980823517e-02,-6.145801860839128494e-03
6.675000000000000000e+03,4.099999904632568359e+00,3.299999952316284180e+00,3.246694912917291731e-09,3.583557672826032103e-09,1.711019754409790039e+00,-2.771681919693946838e-02,-6.651494652032852173e-03
6.676000000000000000e+03,4.199999809265136719e+00,3.299999952316284180e+00,3.328519015965980543e-09,3.779915491719521015e-09,1.709951400756835938e+00,-2.786128781735897064e-02,-7.182698231190443039e-03
6.677000000000000000e+03,4.300000190734863281e+00,3.299999952316284180e+00,3.410294935335400623e-09,3.981068807945575827e-09,1.708922743797302246e+00,-2.788666822016239166e-02,-7.731246296316385269e-03
6.678000000000000000e+03,4.400000095367431641e+00,3.299999952316284180e+00,3.492022448980947047e-09,4.187008517675394614e-09,1.707936644554138184e+00,-2.781104855239391327e-02,-8.289724588394165039e-03
6.679000000000000000e+03,4.500000000000000000e+00,3.299999952316284180e+00,3.573702889170249364e-09,4.397729291838459176e-09,1.706995368003845215e+00,-2.765062265098094940e-02,-8.852275088429450989e-03
6.680000000000000000e+03,4.599999904632568359e+00,3.299999952316284180e+00,3.655337366126332199e-09,4.613225357275041461e-09,1.706100106239318848e+00,-2.741984650492668152e-02,-9.413585066795349121e-03
6.681000000000000000e+03,4.699999809265136719e+00,3.299999952316284180e+00,3.736927212116825103e-09,4.833491829003833118e-09,1.705251574516296387e+00,-2.713156305253505707e-02,-9.969238191843032837e-03
6.682000000000000000e+03,4.800000190734863281e+00,3.299999952316284180e+00,3.818474869632382251e-09,5.058526042489575048e-09,1.704450011253356934e+00,-2.679714187979698181e-02,-1.051563210785388947e-02
6.683000000000000000e+03,4.900000095367431641e+00,3.299999952316284180e+00,3.899980782762213494e-09,5.288321780483329348e-09,1.703695297241210938e+00,-2.642659656703472137e-02,-1.104944199323654175e-02
6.684000000000000000e+03,5.000000000000000000e+00,3.299999952316284180e+00,3.981447171952368080e-09,5.522877266628256621e-09,1.702986717224121094e+00,-2.602870762348175049e-02,-1.156846061348915100e-02
6.685000000000000000e+03,5.099999904632568359e+00,3.299999952316284180e+00,4.062875813559685412e-09,5.762189836389097763e-09,1.702323198318481445e+00,-2.561113238334655762e-02,-1.207062508910894394e-02
6.686000000000000000e+03,5.199999809265136719e+00,3.299999952316284180e+00,4.144268928030214738e-09,6.006257269319803527e-09,1.701703786849975586e+00,-2.518051303923130035e-02,-1.255439873784780502e-02
6.687000000000000000e+03,5.300000190734863281e+00,3.299999952316284180e+00,4.225628735810005310e-09,6.255078677241954210e-09,1.701127052307128906e+00,-2.474256977438926697e-02,-1.301872357726097107e-02
6.688000000000000000e+03,5.400000095367431641e+00,3.299999952316284180e+00,4.306956569166686677e-09,6.508650951531080864e-09,1.700591325759887695e+00,-2.430220320820808411e-02,-1.346251275390386581e-02
6.689000000000000000e+03,5.500000000000000000e+00,3.299999952316284180e+00,4.388254204457098240e-09,6.766973204008763787e-09,1.700094938278198242e+00,-2.386357076466083527e-02,-1.388551667332649231e-02
6.690000000000000000e+03,5.599999904632568359e+00,3.299999952316284180e+00,4.469523862127289249e-09,7.030044990585793130e-09,1.699636101722717285e+00,-2.343016304075717926e-02,-1.428738143295049667e-02
6.691000000000000000e+03,5.699999809265136719e+00,3.299999952316284180e+00,4.550767318534099104e-09,7.297865867172959042e-09,1.699213027954101562e+00,-2.300488390028476715e-02,-1.466805115342140198e-02
6.692000000000000000e+03,5.800000190734863281e+00,3.299999952316284180e+00,4.631986794123577056e-09,7.570435833770261524e-09,1.698823928833007812e+00,-2.259011566638946533e-02,-1.502774097025394440e-02
6.693000000000000000e+03,5.900000095367431641e+00,3.299999952316284180e+00,4.713183177074142804e-09,7.847752669931651326e-09,1.698466658592224121e+00,-2.218777686357498169e-02,-1.536646112799644470e-02
6.694000000000000000e+03,6.000000000000000000e+00,3.299999952316284180e+00,4.794358243742635750e-09,8.129815931567918597e-09,1.698139667510986328e+00,-2.179937809705734253e-02,-1.568488962948322296e-02
6.695000000000000000e+03,6.099999904632568359e+00,3.299999952316284180e+00,4.875513770485895293e-09,8.416628283214322437e-09,1.697841048240661621e+00,-2.142607234418392181e-02,-1.598345302045345306e-02
6.696000000000000000e+03,6.199999809265136719e+00,3.299999952316284180e+00,4.956651089571550983e-09,8.708187060335603746e-09,1.697568774223327637e+00,-2.106870524585247040e-02,-1.626274734735488892e-02
6.697000000000000000e+03,6.300000190734863281e+00,3.299999952316284180e+00,5.037772421445652071e-09,9.004495815645441326e-09,1.697321295738220215e+00,-2.072785049676895142e-02,-1.652352325618267059e-02
6.698000000000000000e+03,6.400000095367431641e+00,3.299999952316284180e+00,5.118878210197408407e-09,9.305550108251736674e-09,1.697096824645996094e+00,-2.040384896099567413e-02,-1.676622591912746429e-02
6.699000000000000000e+03,6.500000000000000000e+00,3.299999952316284180e+00,5.199969344005239691e-09,9.611352602689748892e-09,1.696893811225891113e+00,-2.009684778749942780e-02,-1.699187606573104858e-02
6.700000000000000000e+03,6.599999904632568359e+00,3.299999952316284180e+00,5.281048043315195173e-09,9.921904187137897679e-09,1.696710586547851562e+00,-1.980681531131267548e-02,-1.720116473734378815e-02
6.701000000000000000e+03,6.699999809265136719e+00,3.299999952316284180e+00,5.362114752216484703e-09,1.023720397341776334e-08,1.696545720100402832e+00,-1.953358761966228485e-02,-1.739488169550895691e-02
6.702000000000000000e+03,6.800000190734863281e+00,3.299999952316284180e+00,5.443171691155157532e-09,1.055725462606460496e-08,1.696397662162780762e+00,-1.927687600255012512e-02,-1.757391355931758881e-02
6.703000000000000000e+03,6.900000095367431641e+00,3.299999952316284180e+00,5.524217971952793960e-09,1.088205348054316346e-08,1.696265220642089844e+00,-1.903630048036575317e-02,-1.773878931999206543e-02
6.704000000000000000e+03,7.000000000000000000e+00,3.299999952316284180e+00,5.605255370966233386e-09,1.121160231321027823e-08,1.696147084236145020e+00,-1.881139539182186127e-02,-1.789056509733200073e-02
6.705000000000000000e+03,7.099999904632568359e+00,3.299999952316284180e+00,5.686285220463105361e-09,1.154590112406594926e-08,1.696042060852050781e+00,-1.860163733363151550e-02,-1.802993379533290863e-02
6.706000000000000000e+03,7.199999809265136719e+00,3.299999952316284180e+00,5.767307520443409885e-09,1.188495168946701597e-08,1.695948839187622070e+00,-1.840645261108875275e-02,-1.815765351057052612e-02
6.707000000000000000e+03,7.300000190734863281e+00,3.299999952316284180e+00,5.848323603174776508e-09,1.222875400941347834e-08,1.695866584777832031e+00,-1.822523213922977448e-02,-1.827455125749111176e-02
6.708000000000000000e+03,7.400000095367431641e+00,3.299999952316284180e+00,5.929333468657205231e-09,1.257730719572691669e-08,1.695794224739074707e+00,-1.805734634399414062e-02,-1.838107220828533173e-02
6.709000000000000000e+03,7.500000000000000000e+00,3.299999952316284180e+00,6.010338449158325602e-09,1.293061213658575070e-08,1.695730805397033691e+00,-1.790214516222476959e-02,-1.847817376255989075e-02
6.710000000000000000e+03,7.599999904632568359e+00,3.299999952316284180e+00,6.091338544678137623e-09,1.328866972016840009e-08,1.695675611495971680e+00,-1.775897294282913208e-02,-1.856643147766590118e-02
6.711000000000000000e+03,7.699999809265136719e+00,3.299999952316284180e+00,6.172334199305851143e-09,1.365147994647486485e-08,1.695627689361572266e+00,-1.762717217206954956e-02,-1.864647865295410156e-02
6.712000000000000000e+03,7.800000190734863281e+00,3.299999952316284180e+00,6.253326745309095713e-09,1.401904636821882377e-08,1.695586442947387695e+00,-1.750609464943408966e-02,-1.871900632977485657e-02
6.713000000000000000e+03,7.900000095367431641e+00,3.299999952316284180e+00,6.334315738598661483e-09,1.439136365632975867e-08,1.695551037788391113e+00,-1.739509776234626770e-02,-1.878431625664234161e-02
6.714000000000000000e+03,8.000000000000000000e+00,3.299999952316284180e+00,6.415302067352968152e-09,1.476843536352134834e-08,1.695520997047424316e+00,-1.729355752468109131e-02,-1.884322240948677063e-02
6.715000000000000000e+03,8.100000381469726562e+00,3.299999952316284180e+00,6.496285731572015720e-09,1.515026326615043217e-08,1.695495724678039551e+00,-1.720085926353931427e-02,-1.889624446630477905e-02
6.716000000000000000e+03,8.199999809265136719e+00,3.299999952316284180e+00,6.577266731255804189e-09,1.553684292332491168e-08,1.695474624633789062e+00,-1.711641624569892883e-02,-1.894349418580532074e-02
6.717000000000000000e+03,8.300000190734863281e+00,3.299999952316284180e+00,6.658246842761172957e-09,1.592818144047214446e-08,1.695457339286804199e+00,-1.703965850174427032e-02,-1.898606866598129272e-02
6.718000000000000000e+03,8.399999618530273438e+00,3.299999952316284180e+00,6.739223845642072774e-09,1.632426993580793351e-08,1.695443272590637207e+00,-1.697004400193691254e-02,-1.902366243302822113e-02
6.719000000000000000e+03,8.500000000000000000e+00,3.299999952316284180e+00,6.820200848522972592e-09,1.672511906747331523e-08,1.695432186126708984e+00,-1.690704748034477234e-02,-1.905740611255168915e-02
6.720000000000000000e+03,8.600000381469726562e+00,3.299999952316284180e+00,6.901176075047033009e-09,1.713072528275461082e-08,1.695423603057861328e+00,-1.685017533600330353e-02,-1.908712275326251984e-02
6.721000000000000000e+03,8.699999809265136719e+00,3.299999952316284180e+00,6.982149969303463877e-09,1.754108325258130208e-08,1.695417404174804688e+00,-1.679895631968975067e-02,-1.911316066980361938e-02
6.722000000000000000e+03,8.800000190734863281e+00,3.299999952316284180e+00,7.063123419470684894e-09,1.795620008238074661e-08,1.695412993431091309e+00,-1.675294525921344757e-02,-1.913638971745967865e-02
6.723000000000000000e+03,8.899999618530273438e+00,3.299999952316284180e+00,7.144095537370276361e-09,1.837607221943926561e-08,1.695410370826721191e+00,-1.671172119677066803e-02,-1.915637589991092682e-02
6.724000000000000000e+03,9.000000000000000000e+00,3.299999952316284180e+00,7.225067655269867828e-09,1.880070321647053788e-08,1.695409059524536133e+00,-1.667488925158977509e-02,-1.917412877082824707e-02
6.725000000000000000e+03,9.100000381469726562e+00,3.299999952316284180e+00,7.306039773169459295e-09,1.923009129711772403e-08,1.695409059524536133e+00,-1.664207875728607178e-02,-1.918935589492321014e-02
6.726000000000000000e+03,9.199999809265136719e+00,3.299999952316284180e+00,7.387010558801421212e-09,1.966423468502398464e-08,1.695410132408142090e+00,-1.661293953657150269e-02,-1.920229382812976837e-02
6.727000000000000000e+03,9.300000190734863281e+00,3.299999952316284180e+00,7.467981788522592979e-09,2.010313693290299852e-08,1.695412039756774902e+00,-1.658714935183525085e-02,-1.921370439231395721e-02
6.728000000000000000e+03,9.399999618530273438e+00,3.299999952316284180e+00,7.548951685976135195e-09,2.054679448804108688e-08,1.695414662361145020e+00,-1.656440459191799164e-02,-1.922305673360824585e-02
6.729000000000000000e+03,9.500000000000000000e+00,3.299999952316284180e+00,7.629922471608097112e-09,2.099521445586560731e-08,1.695417881011962891e+00,-1.654442586004734039e-02,-1.923126541078090668e-02
6.730000000000000000e+03,9.600000381469726562e+00,3.299999952316284180e+00,7.710893257240059029e-09,2.144838973094920220e-08,1.695421576499938965e+00,-1.652695052325725555e-02,-1.923794858157634735e-02
6.731000000000000000e+03,9.699999809265136719e+00,3.299999952316284180e+00,7.791863154693601246e-09,2.190632208964871097e-08,1.695425629615783691e+00,-1.651173830032348633e-02,-1.924325712025165558e-02
6.732000000000000000e+03,9.800000190734863281e+00,3.299999952316284180e+00,7.872833940325563162e-09,2.236901508467781241e-08,1.695429921150207520e+00,-1.649856567382812500e-02,-1.924787834286689758e-02
6.733000000000000000e+03,9.899999618530273438e+00,3.299999952316284180e+00,7.953803837779105379e-09,2.283646161060914892e-08,1.695434451103210449e+00,-1.648722775280475616e-02,-1.925120875239372253e-02
6.734000000000000000e+03,1.000000000000000000e+01,3.299999952316284180e+00,8.034774623411067296e-09,2.330867054922691750e-08,1.695438981056213379e+00,-1.647753454744815826e-02,-1.925409026443958282e-02
6.735000000000000000e+03,1.010000038146972656e+01,3.299999952316284180e+00,8.115746297221448913e-09,2.378563834781743935e-08,1.695443749427795410e+00,-1.646931283175945282e-02,-1.925608515739440918e-02
6.736000000000000000e+03,1.019999980926513672e+01,3.299999952316284180e+00,8.196716194674991129e-09,2.426736145366703568e-08,1.695448398590087891e+00,-1.646240241825580597e-02,-1.925726793706417084e-02
6.737000000000000000e+03,1.030000019073486328e+01,3.299999952316284180e+00,8.277687868485372746e-09,2.475384697220306407e-08,1.695453166961669922e+00,-1.645665802061557770e-02,-1.925830356776714325e-02
6.738000000000000000e+03,1.039999961853027344e+01,3.299999952316284180e+00,8.358658654117334663e-09,2.524508602164132753e-08,1.695457816123962402e+00,-1.645194925367832184e-02,-1.925849728286266327e-02
6.739000000000000000e+03,1.050000000000000000e+01,3.299999952316284180e+00,8.439629439749296580e-09,2.574108748376602307e-08,1.695462346076965332e+00,-1.644815318286418915e-02,-1.925868541002273560e-02
6.740000000000000000e+03,1.060000038146972656e+01,3.299999952316284180e+00,8.520602001738097897e-09,2.624184958222031128e-08,1.695466756820678711e+00,-1.644516177475452423e-02,-1.925835385918617249e-02
6.741000000000000000e+03,1.069999980926513672e+01,3.299999952316284180e+00,8.601572787370059814e-09,2.674736521157683455e-08,1.695471048355102539e+00,-1.644287258386611938e-02,-1.925755478441715240e-02
6.742000000000000000e+03,1.080000019073486328e+01,3.299999952316284180e+00,8.682544461180441431e-09,2.725764325361978990e-08,1.695475220680236816e+00,-1.644119806587696075e-02,-1.925691217184066772e-02
6.743000000000000000e+03,1.089999961853027344e+01,3.299999952316284180e+00,8.763516134990823048e-09,2.777267660292181972e-08,1.695479154586791992e+00,-1.644005626440048218e-02,-1.925570145249366760e-02
6.744000000000000000e+03,1.100000000000000000e+01,3.299999952316284180e+00,8.844488696979624365e-09,2.829247236491028161e-08,1.695482969284057617e+00,-1.643937639892101288e-02,-1.925472542643547058e-02
6.745000000000000000e+03,1.110000038146972656e+01,3.299999952316284180e+00,8.925461258968425682e-09,2.881702876322833617e-08,1.695486664772033691e+00,-1.643908955156803131e-02,-1.925344392657279968e-02
6.746000000000000000e+03,1.119999980926513672e+01,3.299999952316284180e+00,9.006433820957226999e-09,2.934633869244862581e-08,1.695490121841430664e+00,-1.643913798034191132e-02,-1.925188116729259491e-02
6.747000000000000000e+03,1.130000019073486328e+01,3.299999952316284180e+00,9.087406382946028316e-09,2.988041103435534751e-08,1.695493340492248535e+00,-1.643946953117847443e-02,-1.925064250826835632e-02
6.748000000000000000e+03,1.139999961853027344e+01,3.299999952316284180e+00,9.168378944934829633e-09,3.041924045987798308e-08,1.695496439933776855e+00,-1.644003763794898987e-02,-1.924897916615009308e-02
6.749000000000000000e+03,1.150000000000000000e+01,3.299999952316284180e+00,9.249351506923630950e-09,3.096283052173021133e-08,1.695499420166015625e+00,-1.644080132246017456e-02,-1.924767903983592987e-02
6.750000000000000000e+03,1.160000038146972656e+01,3.299999952316284180e+00,9.330324957090851967e-09,3.151118121991203225e-08,1.695502161979675293e+00,-1.644172333180904388e-02,-1.924618147313594818e-02
6.751000000000000000e+03,1.169999980926513672e+01,3.299999952316284180e+00,9.411298407258072984e-09,3.206428544899608823e-08,1.695504784584045410e+00,-1.644277200102806091e-02,-1.924449764192104340e-02
6.752000000000000000e+03,1.180000019073486328e+01,3.299999952316284180e+00,9.492271857425294002e-09,3.262215386712341569e-08,1.695507168769836426e+00,-1.644391752779483795e-02,-1.924321800470352173e-02
6.753000000000000000e+03,1.189999961853027344e+01,3.299999952316284180e+00,9.573244419414095319e-09,3.318477581615297822e-08,1.695509433746337891e+00,-1.644513756036758423e-02,-1.924158260226249695e-02
6.754000000000000000e+03,1.200000000000000000e+01,3.299999952316284180e+00,9.654218757759736036e-09,3.375216550693949102e-08,1.695511460304260254e+00,-1.644640788435935974e-02,-1.924036629498004913e-02
6.755000000000000000e+03,1.210000038146972656e+01,3.299999952316284180e+00,9.735193096105376753e-09,3.432431228134191770e-08,1.695513486862182617e+00,-1.644771173596382141e-02,-1.923900097608566284e-02
6.756000000000000000e+03,1.219999980926513672e+01,3.299999952316284180e+00,9.816165658094178070e-09,3.490120903393290064e-08,1.695515275001525879e+00,-1.644903235137462616e-02,-1.923749037086963654e-02
6.757000000000000000e+03,1.230000019073486328e+01,3.299999952316284180e+00,9.897139996439818788e-09,3.548287352828083385e-08,1.695516943931579590e+00,-1.645035669207572937e-02,-1.923641562461853027e-02
6.758000000000000000e+03,1.239999961853027344e+01,3.299999952316284180e+00,9.978113446607039805e-09,3.606929155353100214e-08,1.695518493652343750e+00,-1.645167171955108643e-02,-1.923500932753086090e-02
6.759000000000000000e+03,1.250000000000000000e+01,3.299999952316284180e+00,1.005908778495268052e-08,3.666047376782444189e-08,1.695519924163818359e+00,-1.645296998322010040e-02,-1.923404261469841003e-02
6.760000000000000000e+03,1.260000038146972656e+01,3.299999952316284180e+00,1.014006301147674094e-08,3.725641661844747432e-08,1.695521235466003418e+00,-1.645424030721187592e-02,-1.923293992877006531e-02
6.761000000000000000e+03,1.269999980926513672e+01,3.299999952316284180e+00,1.022103646164396196e-08,3.785711299997274182e-08,1.695522427558898926e+00,-1.645547896623611450e-02,-1.923170126974582672e-02
6.762000000000000000e+03,1.280000019073486328e+01,3.299999952316284180e+00,1.030201079998960267e-08,3.846257357054128079e-08,1.695523619651794434e+00,-1.645668037235736847e-02,-1.923090405762195587e-02
6.763000000000000000e+03,1.289999961853027344e+01,3.299999952316284180e+00,1.038298513833524339e-08,3.907278411929837603e-08,1.695524573326110840e+00,-1.645783707499504089e-02,-1.922977901995182037e-02
6.764000000000000000e+03,1.300000000000000000e+01,3.299999952316284180e+00,1.046395947668088411e-08,3.968776240981242154e-08,1.695525527000427246e+00,-1.645894907414913177e-02,-1.922909170389175415e-02
6.765000000000000000e+03,1.310000038146972656e+01,3.299999952316284180e+00,1.054493470320494453e-08,4.030750133665605972e-08,1.695526361465454102e+00,-1.646001264452934265e-02,-1.922826841473579407e-02
6.766000000000000000e+03,1.319999980926513672e+01,3.299999952316284180e+00,1.062590815337216554e-08,4.093199024168825417e-08,1.695527076721191406e+00,-1.646102778613567352e-02,-1.922730356454849243e-02
6.767000000000000000e+03,1.330000019073486328e+01,3.299999952316284180e+00,1.070688337989622596e-08,4.156124688847739890e-08,1.695527791976928711e+00,-1.646198891103267670e-02,-1.922677457332611084e-02
6.768000000000000000e+03,1.339999961853027344e+01,3.299999952316284180e+00,1.078785771824186668e-08,4.219525706616877869e-08,1.695528507232666016e+00,-1.646289974451065063e-02,-1.922591030597686768e-02
6.769000000000000000e+03,1.350000000000000000e+01,3.299999952316284180e+00,1.086883294476592710e-08,4.283402788018975116e-08,1.695528984069824219e+00,-1.646375842392444611e-02,-1.922547630965709686e-02
6.770000000000000000e+03,1.360000038146972656e+01,3.299999952316284180e+00,1.094980728311156781e-08,4.347756288325399510e-08,1.695529580116271973e+00,-1.646456308662891388e-02,-1.922489516437053680e-02
6.771000000000000000e+03,1.369999980926513672e+01,3.299999952316284180e+00,1.103078162145720853e-08,4.412584786450679530e-08,1.695530056953430176e+00,-1.646531745791435242e-02,-1.922416314482688904e-02
6.772000000000000000e+03,1.380000019073486328e+01,3.299999952316284180e+00,1.111175684798126895e-08,4.477890058751654578e-08,1.695530414581298828e+00,-1.646601781249046326e-02,-1.922385767102241516e-02
6.773000000000000000e+03,1.389999961853027344e+01,3.299999952316284180e+00,1.119273118632690966e-08,4.543670328871485253e-08,1.695530772209167480e+00,-1.646666787564754486e-02,-1.922320574522018433e-02
6.774000000000000000e+03,1.400000000000000000e+01,3.299999952316284180e+00,1.127370641285097008e-08,4.609927373167010956e-08,1.695531129837036133e+00,-1.646726578474044800e-02,-1.922297477722167969e-02
6.775000000000000000e+03,1.410000038146972656e+01,3.299999952316284180e+00,1.135468163937503050e-08,4.676660125824128045e-08,1.695531487464904785e+00,-1.646781153976917267e-02,-1.922258734703063965e-02
6.776000000000000000e+03,1.419999980926513672e+01,3.299999952316284180e+00,1.143565597772067122e-08,4.743868231571468641e-08,1.695531725883483887e+00,-1.646830700337886810e-02,-1.922203972935676575e-02
6.777000000000000000e+03,1.430000019073486328e+01,3.299999952316284180e+00,1.151663120424473163e-08,4.811553111494504265e-08,1.695531964302062988e+00,-1.646874845027923584e-02,-1.922190748155117035e-02
6.778000000000000000e+03,1.439999961853027344e+01,3.299999952316284180e+00,1.159760554259037235e-08,4.879712989236395515e-08,1.695532202720642090e+00,-1.646913960576057434e-02,-1.922142133116722107e-02
6.779000000000000000e+03,1.450000000000000000e+01,3.299999952316284180e+00,1.167858076911443277e-08,4.948349285882613913e-08,1.695532321929931641e+00,-1.646947488188743591e-02,-1.922134868800640106e-02
6.780000000000000000e+03,1.460000038146972656e+01,3.299999952316284180e+00,1.175955599563849319e-08,5.017462001433159458e-08,1.695532441139221191e+00,-1.646975614130496979e-02,-1.922111213207244873e-02
6.781000000000000000e+03,1.469999980926513672e+01,3.299999952316284180e+00,1.184053033398413390e-08,5.087049359531192749e-08,1.695532560348510742e+00,-1.646997779607772827e-02,-1.922071166336536407e-02
6.782000000000000000e+03,1.480000019073486328e+01,3.299999952316284180e+00,1.192150556050819432e-08,5.157113847076288948e-08,1.695532679557800293e+00,-1.647013798356056213e-02,-1.922072283923625946e-02
6.783000000000000000e+03,1.489999961853027344e+01,3.299999952316284180e+00,1.200247989885383504e-08,5.227653332440240774e-08,1.695532679557800293e+00,-1.647023484110832214e-02,-1.922037452459335327e-02
6.784000000000000000e+03,1.500000000000000000e+01,3.299999952316284180e+00,1.208345512537789546e-08,5.298669236708519747e-08,1.695532679557800293e+00,-1.647025905549526215e-02,-1.922044157981872559e-02
6.785000000000000000e+03,1.510000038146972656e+01,3.299999952316284180e+00,1.216443124008037557e-08,5.370161204609757988e-08,1.695532560348510742e+00,-1.647020876407623291e-02,-1.922034285962581635e-02
6.786000000000000000e+03,1.519999980926513672e+01,3.299999952316284180e+00,1.224540557842601629e-08,5.442128525601219735e-08,1.695532560348510742e+00,-1.647007279098033905e-02,-1.922008395195007324e-02
6.787000000000000000e+03,1.530000019073486328e+01,3.299999952316284180e+00,1.232638080495007671e-08,5.514572265497008630e-08,1.695532321929931641e+00,-1.646984554827213287e-02,-1.922024041414260864e-02
6.788000000000000000e+03,1.539999961853027344e+01,3.299999952316284180e+00,1.240735514329571743e-08,5.587491358483021031e-08,1.695532083511352539e+00,-1.646951586008071899e-02,-1.922005042433738708e-02
6.789000000000000000e+03,1.550000000000000000e+01,3.299999952316284180e+00,1.248833036981977784e-08,5.660886870373360580e-08,1.695531845092773438e+00,-1.646906882524490356e-02,-1.922028325498104095e-02
6.790000000000000000e+03,1.560000038146972656e+01,3.299999952316284180e+00,1.256930559634383826e-08,5.734758445896659396e-08,1.695531487464904785e+00,-1.646849513053894043e-02,-1.922037079930305481e-02
6.791000000000000000e+03,1.569999980926513672e+01,3.299999952316284180e+00,1.265027993468947898e-08,5.809105019238813838e-08,1.695531010627746582e+00,-1.646777428686618805e-02,-1.922031491994857788e-02
6.792000000000000000e+03,1.580000019073486328e+01,3.299999952316284180e+00,1.273125516121353940e-08,5.883928366756663308e-08,1.695530295372009277e+00,-1.646689139306545258e-02,-1.922070235013961792e-02
6.793000000000000000e+03,1.589999961853027344e+01,3.299999952316284180e+00,1.281222861138076041e-08,5.959227067364736286e-08,1.695529580116271973e+00,-1.646582409739494324e-02,-1.922077499330043793e-02
6.794000000000000000e+03,1.600000000000000000e+01,3.299999952316284180e+00,1.289320383790482083e-08,6.035001831605768530e-08,1.695528626441955566e+00,-1.646455004811286926e-02,-1.922130770981311798e-02
6.795000000000000000e+03,1.610000038146972656e+01,3.299999952316284180e+00,1.297417906442888125e-08,6.111253014751127921e-08,1.695527553558349609e+00,-1.646304130554199219e-02,-1.922174170613288879e-02
6.796000000000000000e+03,1.620000076293945312e+01,3.299999952316284180e+00,1.305515340277452196e-08,6.187980261529446580e-08,1.695526123046875000e+00,-1.646127179265022278e-02,-1.922228187322616577e-02
6.797000000000000000e+03,1.629999923706054688e+01,3.299999952316284180e+00,1.313612685294174298e-08,6.265181440312517225e-08,1.695524454116821289e+00,-1.645920984447002411e-02,-1.922256126999855042e-02
6.798000000000000000e+03,1.639999961853027344e+01,3.299999952316284180e+00,1.321710119128738370e-08,6.342860103814018657e-08,1.695522546768188477e+00,-1.645682007074356079e-02,-1.922375708818435669e-02
6.799000000000000000e+03,1.650000000000000000e+01,3.299999952316284180e+00,1.329807552963302442e-08,6.421014830948479357e-08,1.695520162582397461e+00,-1.645406708121299744e-02,-1.922473683953285217e-02
6.800000000000000000e+03,1.660000038146972656e+01,3.299999952316284180e+00,1.337904986797866513e-08,6.499645621715899324e-08,1.695517420768737793e+00,-1.645091362297534943e-02,-1.922591775655746460e-02
6.801000000000000000e+03,1.670000076293945312e+01,3.299999952316284180e+00,1.346002420632430585e-08,6.578751765573542798e-08,1.695514082908630371e+00,-1.644731871783733368e-02,-1.922732964158058167e-02
6.802000000000000000e+03,1.679999923706054688e+01,3.299999952316284180e+00,1.354099676831310717e-08,6.658332551978674019e-08,1.695510268211364746e+00,-1.644324138760566711e-02,-1.922862976789474487e-02
6.803000000000000000e+03,1.689999961853027344e+01,3.299999952316284180e+00,1.362197021848032819e-08,6.738390823102236027e-08,1.695505738258361816e+00,-1.643864437937736511e-02,-1.923101395368576050e-02
6.804000000000000000e+03,1.700000000000000000e+01,3.299999952316284180e+00,1.370294278046912950e-08,6.818925157858757302e-08,1.695500373840332031e+00,-1.643349044024944305e-02,-1.923338323831558228e-02
6.805000000000000000e+03,1.710000038146972656e+01,3.299999952316284180e+00,1.378391623063635052e-08,6.899935556248237845e-08,1.695494174957275391e+00,-1.642774604260921478e-02,-1.923617906868457794e-02
6.806000000000000000e+03,1.720000076293945312e+01,3.299999952316284180e+00,1.386488790444673214e-08,6.981421307727941894e-08,1.695487022399902344e+00,-1.642138697206974030e-02,-1.923947036266326904e-02
6.807000000000000000e+03,1.729999923706054688e+01,3.299999952316284180e+00,1.394585869007869405e-08,7.063381701755133690e-08,1.695478796958923340e+00,-1.641439832746982574e-02,-1.924294792115688324e-02
6.808000000000000000e+03,1.739999961853027344e+01,3.299999952316284180e+00,1.402683036388907567e-08,7.145818869958020514e-08,1.695469260215759277e+00,-1.640678569674491882e-02,-1.924785599112510681e-02
6.809000000000000000e+03,1.750000000000000000e+01,3.299999952316284180e+00,1.410780026134261789e-08,7.228732812336602365e-08,1.695458412170410156e+00,-1.639856956899166107e-02,-1.925313845276832581e-02
6.810000000000000000e+03,1.760000038146972656e+01,3.299999952316284180e+00,1.418877104697457980e-08,7.312122107805407722e-08,1.695446133613586426e+00,-1.638980582356452942e-02,-1.925928704440593719e-02
6.811000000000000000e+03,1.770000076293945312e+01,3.299999952316284180e+00,1.426974005624970232e-08,7.395987466907172347e-08,1.695432066917419434e+00,-1.638058200478553772e-02,-1.926642842590808868e-02
6.812000000000000000e+03,1.779999923706054688e+01,3.299999952316284180e+00,1.435070640098956574e-08,7.480326758013688959e-08,1.695416331291198730e+00,-1.637103781104087830e-02,-1.927430555224418640e-02
6.813000000000000000e+03,1.789999961853027344e+01,3.299999952316284180e+00,1.443167363390784885e-08,7.565143533838636358e-08,1.695398688316345215e+00,-1.636136882007122040e-02,-1.928421296179294586e-02
6.814000000000000000e+03,1.800000000000000000e+01,3.299999952316284180e+00,1.451263997864771227e-08,7.650436373296543024e-08,1.695379018783569336e+00,-1.635184697806835175e-02,-1.929514296352863312e-02
6.815000000000000000e+03,1.810000038146972656e+01,3.299999952316284180e+00,1.459360543520915598e-08,7.736205276387408958e-08,1.695357441902160645e+00,-1.634282432496547699e-02,-1.930762454867362976e-02
6.816000000000000000e+03,1.820000076293945312e+01,3.299999952316284180e+00,1.467456911541376030e-08,7.822449532568498398e-08,1.695333719253540039e+00,-1.633475907146930695e-02,-1.932178810238838196e-02
6.817000000000000000e+03,1.829999923706054688e+01,3.299999952316284180e+00,1.475553013108310552e-08,7.909168431297075585e-08,1.695308208465576172e+00,-1.632822304964065552e-02,-1.933735795319080353e-02
6.818000000000000000e+03,1.839999961853027344e+01,3.299999952316284180e+00,1.483649114675245073e-08,7.996364104201347800e-08,1.695280790328979492e+00,-1.632391475141048431e-02,-1.935555227100849152e-02
6.819000000000000000e+03,1.850000000000000000e+01,3.299999952316284180e+00,1.491745038606495655e-08,8.084036551281315042e-08,1.695251822471618652e+00,-1.632266119122505188e-02,-1.937520876526832581e-02
6.820000000000000000e+03,1.860000038146972656e+01,3.299999952316284180e+00,1.499840962537746236e-08,8.172184351451505790e-08,1.695221781730651855e+00,-1.632542163133621216e-02,-1.939660124480724335e-02
6.821000000000000000e+03,1.870000076293945312e+01,3.299999952316284180e+00,1.507936708833312878e-08,8.260807504711920046e-08,1.695191144943237305e+00,-1.633326895534992218e-02,-1.941947080194950104e-02
6.822000000000000000e+03,1.879999923706054688e+01,3.299999952316284180e+00,1.516032099857511639e-08,8.349905300519822049e-08,1.695160508155822754e+00,-1.634734869003295898e-02,-1.944297924637794495e-02
6.823000000000000000e+03,1.889999961853027344e+01,3.299999952316284180e+00,1.524127490881710401e-08,8.439480581046154839e-08,1.695130944252014160e+00,-1.636883802711963654e-02,-1.946758106350898743e-02
6.824000000000000000e+03,1.900000000000000000e+01,3.299999952316284180e+00,1.532222881905909162e-08,8.529531214662711136e-08,1.695103168487548828e+00,-1.639884151518344879e-02,-1.949111744761466980e-02
6.825000000000000000e+03,1.910000038146972656e+01,3.299999952316284180e+00,1.540318272930107923e-08,8.620058622454962460e-08,1.695078372955322266e+00,-1.643829233944416046e-02,-1.951263472437858582e-02
6.826000000000000000e+03,1.920000076293945312e+01,3.299999952316284180e+00,1.548413486318622745e-08,8.711061383337437292e-08,1.695057511329650879e+00,-1.648781634867191315e-02,-1.953043974936008453e-02
6.827000000000000000e+03,1.929999923706054688e+01,3.299999952316284180e+00,1.556508699707137566e-08,8.802538786767399870e-08,1.695041418075561523e+00,-1.654757373034954071e-02,-1.954212412238121033e-02
6.828000000000000000e+03,1.939999961853027344e+01,3.299999952316284180e+00,1.564603913095652388e-08,8.894493674915793235e-08,1.695030927658081055e+00,-1.661713235080242157e-02,-1.954656094312667847e-02
6.829000000000000000e+03,1.950000000000000000e+01,3.299999952316284180e+00,1.572699481755535089e-08,8.986925337239881628e-08,1.695025920867919922e+00,-1.669535227119922638e-02,-1.954020000994205475e-02
6.830000000000000000e+03,1.960000038146972656e+01,3.299999952316284180e+00,1.580795050415417791e-08,9.079833063196929288e-08,1.695026278495788574e+00,-1.678034849464893341e-02,-1.952111348509788513e-02
6.831000000000000000e+03,1.970000076293945312e+01,3.299999952316284180e+00,1.588890619075300492e-08,9.173217563329671975e-08,1.695031166076660156e+00,-1.686953008174896240e-02,-1.948731765151023865e-02
6.832000000000000000e+03,1.979999923706054688e+01,3.299999952316284180e+00,1.596986365370867134e-08,9.267076706009902409e-08,1.695038795471191406e+00,-1.695976778864860535e-02,-1.943702436983585358e-02
6.833000000000000000e+03,1.989999961853027344e+01,3.299999952316284180e+00,1.605082466937801655e-08,9.361414754494035151e-08,1.695047378540039062e+00,-1.704763807356357574e-02,-1.937080733478069305e-02
6.834000000000000000e+03,2.000000000000000000e+01,3.299999952316284180e+00,1.613178568504736177e-08,9.456229577153862920e-08,1.695054650306701660e+00,-1.712975651025772095e-02,-1.928792521357536316e-02
6.835000000000000000e+03,0.000000000000000000e+00,3.400000095367431641e+00,6.020792637406879720e-38,7.635071372467804223e-39,1.514240503311157227e+00,4.542721509933471680e-01,-2.618120312690734863e-01
6.836000000000000000e+03,1.000000014901161194e-01,3.400000095367431641e+00,6.561708815189248867e-11,-3.241482429694464429e-11,1.506649494171142578e+00,4.289687275886535645e-01,-2.938055098056793213e-01
6.837000000000000000e+03,2.000000029802322388e-01,3.400000095367431641e+00,1.319178100089857253e-10,-5.774066641484054685e-11,1.514538168907165527e+00,4.074105620384216309e-01,-2.691071331501007080e-01
6.838000000000000000e+03,3.000000119209289551e-01,3.400000095367431641e+00,1.989232112364902605e-10,-7.613864400068948157e-11,1.522641301155090332e+00,3.850930929183959961e-01,-2.462365776300430298e-01
6.839000000000000000e+03,4.000000059604644775e-01,3.400000095367431641e+00,2.666505904969085350e-10,-8.775048049303180164e-11,1.530920863151550293e+00,3.621533215045928955e-01,-2.249984294176101685e-01
6.840000000000000000e+03,5.000000000000000000e-01,3.400000095367431641e+00,3.351109389981843378e-10,-9.269990330906807685e-11,1.539300084114074707e+00,3.387749493122100830e-01,-2.052121013402938843e-01
6.841000000000000000e+03,6.000000238418579102e-01,3.400000095367431641e+00,4.043072543424841570e-10,-9.109493714909433493e-11,1.547674059867858887e+00,3.151721060276031494e-01,-1.867227405309677124e-01
6.842000000000000000e+03,6.999999880790710449e-01,3.400000095367431641e+00,4.742335413254750165e-10,-8.303096404871368463e-11,1.555924057960510254e+00,2.915728092193603516e-01,-1.694068759679794312e-01
6.843000000000000000e+03,8.000000119209289551e-01,3.400000095367431641e+00,5.448748674474757081e-10,-6.859375567547232322e-11,1.563929319381713867e+00,2.682034075260162354e-01,-1.531729102134704590e-01
6.844000000000000000e+03,8.999999761581420898e-01,3.400000095367431641e+00,6.162079735361203348e-10,-4.786243623655650481e-11,1.571578502655029297e+00,2.452764064073562622e-01,-1.379574239253997803e-01
6.845000000000000000e+03,1.000000000000000000e+00,3.400000095367431641e+00,6.882024394805341672e-10,-2.091182782493206105e-11,1.578777313232421875e+00,2.229813337326049805e-01,-1.237195208668708801e-01
6.846000000000000000e+03,1.100000023841857910e+00,3.400000095367431641e+00,7.608219054766607314e-10,1.218563444593812051e-11,1.585452198982238770e+00,2.014795839786529541e-01,-1.104337424039840698e-01
6.847000000000000000e+03,1.200000047683715820e+00,3.400000095367431641e+00,8.340257928729499781e-10,5.135871242178957630e-11,1.591552495956420898e+00,1.809019446372985840e-01,-9.808368980884552002e-02
6.848000000000000000e+03,1.299999952316284180e+00,3.400000095367431641e+00,9.077706919491390636e-10,9.653655652641646157e-11,1.597048282623291016e+00,1.613486856222152710e-01,-8.665635436773300171e-02
6.849000000000000000e+03,1.399999976158142090e+00,3.400000095367431641e+00,9.820116941838819002e-10,1.476486849449898386e-10,1.601929306983947754e+00,1.428911089897155762e-01,-7.613804191350936890e-02
6.850000000000000000e+03,1.500000000000000000e+00,3.400000095367431641e+00,1.056703613500076244e-09,2.046246505571502894e-10,1.606201052665710449e+00,1.255745738744735718e-01,-6.651132553815841675e-02
6.851000000000000000e+03,1.600000023841857910e+00,3.400000095367431641e+00,1.131801430354073545e-09,2.673945509457098524e-10,1.609881281852722168e+00,1.094214692711830139e-01,-5.775378644466400146e-02
6.852000000000000000e+03,1.700000047683715820e+00,3.400000095367431641e+00,1.207261846047913423e-09,3.358893441163246507e-10,1.612997651100158691e+00,9.443479031324386597e-02,-4.983728379011154175e-02
6.853000000000000000e+03,1.799999952316284180e+00,3.400000095367431641e+00,1.283042894151265045e-09,4.100410844198876248e-10,1.615584135055541992e+00,8.060140162706375122e-02,-4.272814840078353882e-02
6.854000000000000000e+03,1.899999976158142090e+00,3.400000095367431641e+00,1.359105272769056683e-09,4.897839356310385028e-10,1.617679119110107422e+00,6.789506971836090088e-02,-3.638798743486404419e-02
6.855000000000000000e+03,2.000000000000000000e+00,3.400000095367431641e+00,1.435412011474568317e-09,5.750536713478027195e-10,1.619323372840881348e+00,5.627934262156486511e-02,-3.077432699501514435e-02
6.856000000000000000e+03,2.099999904632568359e+00,3.400000095367431641e+00,1.511928360287129181e-09,6.657887574590404256e-10,1.620558381080627441e+00,4.570991918444633484e-02,-2.584192901849746704e-02
6.857000000000000000e+03,2.200000047683715820e+00,3.400000095367431641e+00,1.588623010917444844e-09,7.619304631667489502e-10,1.621425628662109375e+00,3.613669425249099731e-02,-2.154381200671195984e-02
6.858000000000000000e+03,2.299999952316284180e+00,3.400000095367431641e+00,1.665466431433060279e-09,8.634225001635797980e-10,1.621965408325195312e+00,2.750570513308048248e-02,-1.783189736306667328e-02
6.859000000000000000e+03,2.400000095367431641e+00,3.400000095367431641e+00,1.742432642615199256e-09,9.702122438781657365e-10,1.622216463088989258e+00,1.976040378212928772e-02,-1.465849950909614563e-02
6.860000000000000000e+03,2.500000000000000000e+00,3.400000095367431641e+00,1.819497441601924947e-09,1.082249623252096171e-09,1.622215270996093750e+00,1.284310873597860336e-02,-1.197629701346158981e-02
6.861000000000000000e+03,2.599999904632568359e+00,3.400000095367431641e+00,1.896639512111164549e-09,1.199487953407185614e-09,1.621996283531188965e+00,6.695850286632776260e-03,-9.739682078361511230e-03
6.862000000000000000e+03,2.700000047683715820e+00,3.400000095367431641e+00,1.973840424440709285e-09,1.321884157690078609e-09,1.621591210365295410e+00,1.261272234842181206e-03,-7.904715836048126221e-03
6.863000000000000000e+03,2.799999952316284180e+00,3.400000095367431641e+00,2.051082415022165151e-09,1.449397268871166489e-09,1.621029615402221680e+00,-3.516689408570528030e-03,-6.429494358599185944e-03
6.864000000000000000e+03,2.900000095367431641e+00,3.400000095367431641e+00,2.128351273000816946e-09,1.581990538568334159e-09,1.620337963104248047e+00,-7.692392449826002121e-03,-5.274874158203601837e-03
6.865000000000000000e+03,3.000000000000000000e+00,3.400000095367431641e+00,2.205633897744974092e-09,1.719628661689398541e-09,1.619540691375732422e+00,-1.131800189614295959e-02,-4.403878934681415558e-03
6.866000000000000000e+03,3.099999904632568359e+00,3.400000095367431641e+00,2.282919187024390340e-09,1.862280440967367667e-09,1.618659734725952148e+00,-1.444328669458627701e-02,-3.782522864639759064e-03
6.867000000000000000e+03,3.200000047683715820e+00,3.400000095367431641e+00,2.360197814965658836e-09,2.009917121625903746e-09,1.617714643478393555e+00,-1.711538620293140411e-02,-3.379322122782468796e-03
6.868000000000000000e+03,3.299999952316284180e+00,3.400000095367431641e+00,2.437461343873792430e-09,2.162511281156298537e-09,1.616722822189331055e+00,-1.937867328524589539e-02,-3.165263915434479713e-03
6.869000000000000000e+03,3.400000095367431641e+00,3.400000095367431641e+00,2.514703556499853221e-09,2.320039715897337373e-09,1.615699529647827148e+00,-2.127473242580890656e-02,-3.114229300990700722e-03
6.870000000000000000e+03,3.500000000000000000e+00,3.400000095367431641e+00,2.591918235594903308e-09,2.482479777299317902e-09,1.614658355712890625e+00,-2.284230664372444153e-02,-3.202146384865045547e-03
6.871000000000000000e+03,3.599999904632568359e+00,3.400000095367431641e+00,2.669101384356054041e-09,2.649811703392401796e-09,1.613610863685607910e+00,-2.411734871566295624e-02,-3.407616866752505302e-03
6.872000000000000000e+03,3.700000047683715820e+00,3.400000095367431641e+00,2.746249450069626619e-09,2.822018174697404902e-09,1.612567067146301270e+00,-2.513306960463523865e-02,-3.711286233738064766e-03
6.873000000000000000e+03,3.799999952316284180e+00,3.400000095367431641e+00,2.823359324111152091e-09,2.999082093779747993e-09,1.611535429954528809e+00,-2.592001110315322876e-02,-4.095701966434717178e-03
6.874000000000000000e+03,3.900000095367431641e+00,3.400000095367431641e+00,2.900429674213000908e-09,3.180989693873925717e-09,1.610523104667663574e+00,-2.650616690516471863e-02,-4.545667674392461777e-03
6.875000000000000000e+03,4.000000000000000000e+00,3.400000095367431641e+00,2.977458724018333669e-09,3.367727430259037646e-09,1.609536051750183105e+00,-2.691707946360111237e-02,-5.047351587563753128e-03
6.876000000000000000e+03,4.099999904632568359e+00,3.400000095367431641e+00,3.054446029437940524e-09,3.559283978660232606e-09,1.608579158782958984e+00,-2.717598155140876770e-02,-5.588891450315713882e-03
6.877000000000000000e+03,4.199999809265136719e+00,3.400000095367431641e+00,3.131390924338006698e-09,3.755648680936474193e-09,1.607656121253967285e+00,-2.730391360819339752e-02,-6.159713026136159897e-03
6.878000000000000000e+03,4.300000190734863281e+00,3.400000095367431641e+00,3.208294518941556817e-09,3.956813987571194957e-09,1.606769919395446777e+00,-2.731986343860626221e-02,-6.750732660293579102e-03
6.879000000000000000e+03,4.400000095367431641e+00,3.400000095367431641e+00,3.285155925070171179e-09,4.162769684512568347e-09,1.605922818183898926e+00,-2.724090963602066040e-02,-7.353726308792829514e-03
6.880000000000000000e+03,4.500000000000000000e+00,3.400000095367431641e+00,3.361976919080689186e-09,4.373509110422446611e-09,1.605116128921508789e+00,-2.708234079182147980e-02,-7.962130941450595856e-03
6.881000000000000000e+03,4.599999904632568359e+00,3.400000095367431641e+00,3.438758167106925612e-09,4.589026936230311549e-09,1.604350805282592773e+00,-2.685780264437198639e-02,-8.570021018385887146e-03
6.882000000000000000e+03,4.699999809265136719e+00,3.400000095367431641e+00,3.515501001416510007e-09,4.809316944687225259e-09,1.603627324104309082e+00,-2.657941728830337524e-02,-9.172455407679080963e-03
6.883000000000000000e+03,4.800000190734863281e+00,3.400000095367431641e+00,3.592207198366281773e-09,5.034376027168718792e-09,1.602945566177368164e+00,-2.625790610909461975e-02,-9.765383787453174591e-03
6.884000000000000000e+03,4.900000095367431641e+00,3.400000095367431641e+00,3.668877424090055683e-09,5.264197966425854247e-09,1.602305054664611816e+00,-2.590271830558776855e-02,-1.034510415047407150e-02
6.885000000000000000e+03,5.000000000000000000e+00,3.400000095367431641e+00,3.745513676989276064e-09,5.498780097923372523e-09,1.601705074310302734e+00,-2.552213147282600403e-02,-1.090909633785486221e-02
6.886000000000000000e+03,5.099999904632568359e+00,3.400000095367431641e+00,3.822117289331572465e-09,5.738119757126014520e-09,1.601144790649414062e+00,-2.512336336076259613e-02,-1.145504042506217957e-02
6.887000000000000000e+03,5.199999809265136719e+00,3.400000095367431641e+00,3.898690703607599062e-09,5.982214279498521137e-09,1.600622892379760742e+00,-2.471266686916351318e-02,-1.198119670152664185e-02
6.888000000000000000e+03,5.300000190734863281e+00,3.400000095367431641e+00,3.975234807995775554e-09,6.231062776862472674e-09,1.600138068199157715e+00,-2.429543249309062958e-02,-1.248634327203035355e-02
6.889000000000000000e+03,5.400000095367431641e+00,3.400000095367431641e+00,4.051751822942151193e-09,6.484661252414980481e-09,1.599688768386840820e+00,-2.387626841664314270e-02,-1.296927407383918762e-02
6.890000000000000000e+03,5.500000000000000000e+00,3.400000095367431641e+00,4.128242636625145678e-09,6.743009262066834708e-09,1.599273562431335449e+00,-2.345907874405384064e-02,-1.342965103685855865e-02
6.891000000000000000e+03,5.599999904632568359e+00,3.400000095367431641e+00,4.204709469490808260e-09,7.006106361728825505e-09,1.598890662193298340e+00,-2.304714731872081757e-02,-1.386706344783306122e-02
6.892000000000000000e+03,5.699999809265136719e+00,3.400000095367431641e+00,4.281153653806768489e-09,7.273951219133323320e-09,1.598538637161254883e+00,-2.264319360256195068e-02,-1.428142376244068146e-02
6.893000000000000000e+03,5.800000190734863281e+00,3.400000095367431641e+00,4.357577410019075614e-09,7.546544722458747856e-09,1.598215579986572266e+00,-2.224944531917572021e-02,-1.467293780297040939e-02
6.894000000000000000e+03,5.900000095367431641e+00,3.400000095367431641e+00,4.433981182216939487e-09,7.823883763080630160e-09,1.597919821739196777e+00,-2.186769992113113403e-02,-1.504162419587373734e-02
6.895000000000000000e+03,6.000000000000000000e+00,3.400000095367431641e+00,4.510366746757199508e-09,8.105969229177389934e-09,1.597649812698364258e+00,-2.149936370551586151e-02,-1.538818422704935074e-02
6.896000000000000000e+03,6.099999904632568359e+00,3.400000095367431641e+00,4.586735435907485225e-09,8.392801120749027177e-09,1.597403883934020996e+00,-2.114550583064556122e-02,-1.571308262646198273e-02
6.897000000000000000e+03,6.199999809265136719e+00,3.400000095367431641e+00,4.663089026024636041e-09,8.684379437795541889e-09,1.597180485725402832e+00,-2.080690674483776093e-02,-1.601696573197841644e-02
6.898000000000000000e+03,6.300000190734863281e+00,3.400000095367431641e+00,4.739428405287071655e-09,8.980705956673773471e-09,1.596977949142456055e+00,-2.048408985137939453e-02,-1.630063727498054504e-02
6.899000000000000000e+03,6.400000095367431641e+00,3.400000095367431641e+00,4.815754461873211767e-09,9.281778012848462822e-09,1.596794962882995605e+00,-2.017736248672008514e-02,-1.656460389494895935e-02
6.900000000000000000e+03,6.500000000000000000e+00,3.400000095367431641e+00,4.892068528050685927e-09,9.587597382676449342e-09,1.596629858016967773e+00,-1.988684199750423431e-02,-1.680995710194110870e-02
6.901000000000000000e+03,6.599999904632568359e+00,3.400000095367431641e+00,4.968371491997913836e-09,9.898163177979313332e-09,1.596481442451477051e+00,-1.961248926818370819e-02,-1.703745685517787933e-02
6.902000000000000000e+03,6.699999809265136719e+00,3.400000095367431641e+00,5.044664685982525043e-09,1.021347806329231389e-08,1.596348404884338379e+00,-1.935413107275962830e-02,-1.724796742200851440e-02
6.903000000000000000e+03,6.800000190734863281e+00,3.400000095367431641e+00,5.120948554093729399e-09,1.053354203861545102e-08,1.596229553222656250e+00,-1.911148056387901306e-02,-1.744244806468486786e-02
6.904000000000000000e+03,6.900000095367431641e+00,3.400000095367431641e+00,5.197224428599156454e-09,1.085835243941346562e-08,1.596123576164245605e+00,-1.888416707515716553e-02,-1.762150414288043976e-02
6.905000000000000000e+03,7.000000000000000000e+00,3.400000095367431641e+00,5.273492309498806208e-09,1.118791281840003649e-08,1.596029400825500488e+00,-1.867173984646797180e-02,-1.778626441955566406e-02
6.906000000000000000e+03,7.099999904632568359e+00,3.400000095367431641e+00,5.349753529060308210e-09,1.152222228739674392e-08,1.595946192741394043e+00,-1.847369223833084106e-02,-1.793749630451202393e-02
6.907000000000000000e+03,7.199999809265136719e+00,3.400000095367431641e+00,5.426008975462082162e-09,1.186128262276042733e-08,1.595872759819030762e+00,-1.828947104513645172e-02,-1.807603053748607635e-02
6.908000000000000000e+03,7.300000190734863281e+00,3.400000095367431641e+00,5.502258648704128063e-09,1.220509382449108671e-08,1.595808267593383789e+00,-1.811849512159824371e-02,-1.820276305079460144e-02
6.909000000000000000e+03,7.400000095367431641e+00,3.400000095367431641e+00,5.578503436964865614e-09,1.255365589258872205e-08,1.595752000808715820e+00,-1.796015538275241852e-02,-1.831820420920848846e-02
6.910000000000000000e+03,7.500000000000000000e+00,3.400000095367431641e+00,5.654743784333504664e-09,1.290696793887491367e-08,1.595703005790710449e+00,-1.781383529305458069e-02,-1.842337846755981445e-02
6.911000000000000000e+03,7.599999904632568359e+00,3.400000095367431641e+00,5.730980134899255063e-09,1.326503262788492066e-08,1.595660686492919922e+00,-1.767890527844429016e-02,-1.851892657577991486e-02
6.912000000000000000e+03,7.699999809265136719e+00,3.400000095367431641e+00,5.807212932751326662e-09,1.362784995961874301e-08,1.595624208450317383e+00,-1.755474321544170380e-02,-1.860553584992885590e-02
6.913000000000000000e+03,7.800000190734863281e+00,3.400000095367431641e+00,5.883443066068139160e-09,1.399542171043322014e-08,1.595593214035034180e+00,-1.744072325527667999e-02,-1.868395693600177765e-02
6.914000000000000000e+03,7.900000095367431641e+00,3.400000095367431641e+00,5.959670090760482708e-09,1.436774432761467324e-08,1.595566987991333008e+00,-1.733623817563056946e-02,-1.875454559922218323e-02
6.915000000000000000e+03,8.000000000000000000e+00,3.400000095367431641e+00,6.035894450917567156e-09,1.474482136387678111e-08,1.595544934272766113e+00,-1.724069193005561829e-02,-1.881816424429416656e-02
6.916000000000000000e+03,8.100000381469726562e+00,3.400000095367431641e+00,6.112117478807022053e-09,1.512665370739796344e-08,1.595526814460754395e+00,-1.715350337326526642e-02,-1.887537911534309387e-02
6.917000000000000000e+03,8.199999809265136719e+00,3.400000095367431641e+00,6.188337398072008000e-09,1.551323691728612175e-08,1.595511913299560547e+00,-1.707411371171474457e-02,-1.892635039985179901e-02
6.918000000000000000e+03,8.300000190734863281e+00,3.400000095367431641e+00,6.264556873247784097e-09,1.590457898714703333e-08,1.595500111579895020e+00,-1.700198091566562653e-02,-1.897221431136131287e-02
6.919000000000000000e+03,8.399999618530273438e+00,3.400000095367431641e+00,6.340774127977510943e-09,1.630067103519650118e-08,1.595490813255310059e+00,-1.693658716976642609e-02,-1.901270635426044464e-02
6.920000000000000000e+03,8.500000000000000000e+00,3.400000095367431641e+00,6.416990938618027940e-09,1.670152371957556170e-08,1.595483899116516113e+00,-1.687744073569774628e-02,-1.904898881912231445e-02
6.921000000000000000e+03,8.600000381469726562e+00,3.400000095367431641e+00,6.493206861080125236e-09,1.710713171121369669e-08,1.595478892326354980e+00,-1.682407036423683167e-02,-1.908092573285102844e-02
6.922000000000000000e+03,8.699999809265136719e+00,3.400000095367431641e+00,6.569421007185383132e-09,1.751749145739722735e-08,1.595475554466247559e+00,-1.677602902054786682e-02,-1.910888962447643280e-02
6.923000000000000000e+03,8.800000190734863281e+00,3.400000095367431641e+00,6.645635153290641028e-09,1.793261183991035068e-08,1.595473766326904297e+00,-1.673289574682712555e-02,-1.913378201425075531e-02
6.924000000000000000e+03,8.899999618530273438e+00,3.400000095367431641e+00,6.721848411217479224e-09,1.835248397696886968e-08,1.595473289489746094e+00,-1.669427193701267242e-02,-1.915519684553146362e-02
6.925000000000000000e+03,9.000000000000000000e+00,3.400000095367431641e+00,6.798061669144317420e-09,1.877711675035698136e-08,1.595473885536193848e+00,-1.665978319942951202e-02,-1.917416788637638092e-02
6.926000000000000000e+03,9.100000381469726562e+00,3.400000095367431641e+00,6.874274482981945766e-09,1.920650838371784630e-08,1.595475316047668457e+00,-1.662907749414443970e-02,-1.919042319059371948e-02
6.927000000000000000e+03,9.199999809265136719e+00,3.400000095367431641e+00,6.950486408641154412e-09,1.964065177162410691e-08,1.595477581024169922e+00,-1.660182885825634003e-02,-1.920421980321407318e-02
6.928000000000000000e+03,9.300000190734863281e+00,3.400000095367431641e+00,7.026698778389572908e-09,2.007955579585996020e-08,1.595480322837829590e+00,-1.657772995531558990e-02,-1.921634003520011902e-02
6.929000000000000000e+03,9.399999618530273438e+00,3.400000095367431641e+00,7.102910259959571704e-09,2.052321335099804855e-08,1.595483660697937012e+00,-1.655649393796920776e-02,-1.922627165913581848e-02
6.930000000000000000e+03,9.500000000000000000e+00,3.400000095367431641e+00,7.179122185618780350e-09,2.097163331882256898e-08,1.595487356185913086e+00,-1.653785631060600281e-02,-1.923494227230548859e-02
6.931000000000000000e+03,9.600000381469726562e+00,3.400000095367431641e+00,7.255334555367198845e-09,2.142481037026300328e-08,1.595491409301757812e+00,-1.652156934142112732e-02,-1.924198307096958160e-02
6.932000000000000000e+03,9.699999809265136719e+00,3.400000095367431641e+00,7.331545592847987791e-09,2.188274272896251205e-08,1.595495700836181641e+00,-1.650740765035152435e-02,-1.924756169319152832e-02
6.933000000000000000e+03,9.800000190734863281e+00,3.400000095367431641e+00,7.407757962596406287e-09,2.234543572399161349e-08,1.595500111579895020e+00,-1.649515703320503235e-02,-1.925237476825714111e-02
6.934000000000000000e+03,9.899999618530273438e+00,3.400000095367431641e+00,7.483969000077195233e-09,2.281288402627978940e-08,1.595504522323608398e+00,-1.648462936282157898e-02,-1.925582811236381531e-02
6.935000000000000000e+03,1.000000000000000000e+01,3.400000095367431641e+00,7.560181813914823579e-09,2.328509296489755798e-08,1.595509052276611328e+00,-1.647564209997653961e-02,-1.925877667963504791e-02
6.936000000000000000e+03,1.010000038146972656e+01,3.400000095367431641e+00,7.636393739574032224e-09,2.376206253984491923e-08,1.595513582229614258e+00,-1.646803133189678192e-02,-1.926078647375106812e-02
6.937000000000000000e+03,1.019999980926513672e+01,3.400000095367431641e+00,7.712605665233240870e-09,2.424378386933767615e-08,1.595517992973327637e+00,-1.646165177226066589e-02,-1.926194317638874054e-02
6.938000000000000000e+03,1.030000019073486328e+01,3.400000095367431641e+00,7.788818479070869216e-09,2.473026938787370455e-08,1.595522403717041016e+00,-1.645636186003684998e-02,-1.926291733980178833e-02
6.939000000000000000e+03,1.039999961853027344e+01,3.400000095367431641e+00,7.865030404730077862e-09,2.522150843731196801e-08,1.595526695251464844e+00,-1.645203866064548492e-02,-1.926302164793014526e-02
6.940000000000000000e+03,1.050000000000000000e+01,3.400000095367431641e+00,7.941243218567706208e-09,2.571751167579350295e-08,1.595530867576599121e+00,-1.644856855273246765e-02,-1.926309615373611450e-02
6.941000000000000000e+03,1.060000038146972656e+01,3.400000095367431641e+00,8.017456920583754254e-09,2.621827199789095175e-08,1.595534920692443848e+00,-1.644584909081459045e-02,-1.926263049244880676e-02
6.942000000000000000e+03,1.069999980926513672e+01,3.400000095367431641e+00,8.093668846242962900e-09,2.672378762724747503e-08,1.595538854598999023e+00,-1.644378527998924255e-02,-1.926168240606784821e-02
6.943000000000000000e+03,1.080000019073486328e+01,3.400000095367431641e+00,8.169882548259010946e-09,2.723406744564726978e-08,1.595542550086975098e+00,-1.644229330122470856e-02,-1.926087960600852966e-02
6.944000000000000000e+03,1.089999961853027344e+01,3.400000095367431641e+00,8.246095362096639292e-09,2.774909901859246020e-08,1.595546126365661621e+00,-1.644129678606987000e-02,-1.925949938595294952e-02
6.945000000000000000e+03,1.100000000000000000e+01,3.400000095367431641e+00,8.322309064112687338e-09,2.826889655693776149e-08,1.595549583435058594e+00,-1.644072867929935455e-02,-1.925834827125072479e-02
6.946000000000000000e+03,1.110000038146972656e+01,3.400000095367431641e+00,8.398522766128735384e-09,2.879345295525581605e-08,1.595552802085876465e+00,-1.644052565097808838e-02,-1.925688795745372772e-02
6.947000000000000000e+03,1.119999980926513672e+01,3.400000095367431641e+00,8.474736468144783430e-09,2.932276110811926628e-08,1.595555782318115234e+00,-1.644063554704189301e-02,-1.925514824688434601e-02
6.948000000000000000e+03,1.130000019073486328e+01,3.400000095367431641e+00,8.550950170160831476e-09,2.985683522638282739e-08,1.595558643341064453e+00,-1.644100435078144073e-02,-1.925373077392578125e-02
6.949000000000000000e+03,1.139999961853027344e+01,3.400000095367431641e+00,8.627163872176879522e-09,3.039566109919178416e-08,1.595561385154724121e+00,-1.644159294664859772e-02,-1.925189048051834106e-02
6.950000000000000000e+03,1.150000000000000000e+01,3.400000095367431641e+00,8.703378462371347268e-09,3.093925471375769121e-08,1.595564007759094238e+00,-1.644236035645008087e-02,-1.925041526556015015e-02
6.951000000000000000e+03,1.160000038146972656e+01,3.400000095367431641e+00,8.779593052565815015e-09,3.148760541193951212e-08,1.595566391944885254e+00,-1.644327305257320404e-02,-1.924874633550643921e-02
6.952000000000000000e+03,1.169999980926513672e+01,3.400000095367431641e+00,8.855806754581863061e-09,3.204070964102356811e-08,1.595568537712097168e+00,-1.644430123269557953e-02,-1.924689859151840210e-02
6.953000000000000000e+03,1.180000019073486328e+01,3.400000095367431641e+00,8.932021344776330807e-09,3.259857805915089557e-08,1.595570683479309082e+00,-1.644541695713996887e-02,-1.924546062946319580e-02
6.954000000000000000e+03,1.189999961853027344e+01,3.400000095367431641e+00,9.008235934970798553e-09,3.316120000818045810e-08,1.595572590827941895e+00,-1.644659973680973053e-02,-1.924367062747478485e-02
6.955000000000000000e+03,1.200000000000000000e+01,3.400000095367431641e+00,9.084450525165266299e-09,3.372858614625329210e-08,1.595574378967285156e+00,-1.644782721996307373e-02,-1.924230903387069702e-02
6.956000000000000000e+03,1.210000038146972656e+01,3.400000095367431641e+00,9.160666003538153745e-09,3.430073292065571877e-08,1.595576047897338867e+00,-1.644908264279365540e-02,-1.924080215394496918e-02
6.957000000000000000e+03,1.219999980926513672e+01,3.400000095367431641e+00,9.236880593732621492e-09,3.487763322596038051e-08,1.595577597618103027e+00,-1.645035110414028168e-02,-1.923915743827819824e-02
6.958000000000000000e+03,1.230000019073486328e+01,3.400000095367431641e+00,9.313095183927089238e-09,3.545929772030831373e-08,1.595579028129577637e+00,-1.645162142813205719e-02,-1.923795603215694427e-02
6.959000000000000000e+03,1.239999961853027344e+01,3.400000095367431641e+00,9.389309774121556984e-09,3.604571574555848201e-08,1.595580339431762695e+00,-1.645288057625293732e-02,-1.923642866313457489e-02
6.960000000000000000e+03,1.250000000000000000e+01,3.400000095367431641e+00,9.465525252494444430e-09,3.663689795985192177e-08,1.595581531524658203e+00,-1.645412109792232513e-02,-1.923535019159317017e-02
6.961000000000000000e+03,1.260000038146972656e+01,3.400000095367431641e+00,9.541740730867331877e-09,3.723284081047495420e-08,1.595582604408264160e+00,-1.645533367991447449e-02,-1.923414133489131927e-02
6.962000000000000000e+03,1.269999980926513672e+01,3.400000095367431641e+00,9.617956209240219323e-09,3.783353363928654289e-08,1.595583677291870117e+00,-1.645651645958423615e-02,-1.923280209302902222e-02
6.963000000000000000e+03,1.280000019073486328e+01,3.400000095367431641e+00,9.694171687613106769e-09,3.843899420985508186e-08,1.595584511756896973e+00,-1.645766012370586395e-02,-1.923191174864768982e-02
6.964000000000000000e+03,1.289999961853027344e+01,3.400000095367431641e+00,9.770386277807574515e-09,3.904920831132585590e-08,1.595585465431213379e+00,-1.645876094698905945e-02,-1.923070102930068970e-02
6.965000000000000000e+03,1.300000000000000000e+01,3.400000095367431641e+00,9.846601756180461962e-09,3.966418660183990141e-08,1.595586180686950684e+00,-1.645981892943382263e-02,-1.922993361949920654e-02
6.966000000000000000e+03,1.310000038146972656e+01,3.400000095367431641e+00,9.922818122731769108e-09,4.028392197596986080e-08,1.595586895942687988e+00,-1.646083034574985504e-02,-1.922903396189212799e-02
6.967000000000000000e+03,1.319999980926513672e+01,3.400000095367431641e+00,9.999032712926236854e-09,4.090841443371573405e-08,1.595587491989135742e+00,-1.646179333329200745e-02,-1.922800019383430481e-02
6.968000000000000000e+03,1.330000019073486328e+01,3.400000095367431641e+00,1.007524907947754400e-08,4.153766752779119997e-08,1.595588088035583496e+00,-1.646270602941513062e-02,-1.922740601003170013e-02
6.969000000000000000e+03,1.339999961853027344e+01,3.400000095367431641e+00,1.015146366967201175e-08,4.217167770548257977e-08,1.595588564872741699e+00,-1.646357029676437378e-02,-1.922648027539253235e-02
6.970000000000000000e+03,1.350000000000000000e+01,3.400000095367431641e+00,1.022768003622331889e-08,4.281045207221723103e-08,1.595589041709899902e+00,-1.646438241004943848e-02,-1.922599226236343384e-02
6.971000000000000000e+03,1.360000038146972656e+01,3.400000095367431641e+00,1.030389551459620634e-08,4.345398352256779617e-08,1.595589518547058105e+00,-1.646514609456062317e-02,-1.922536082565784454e-02
6.972000000000000000e+03,1.369999980926513672e+01,3.400000095367431641e+00,1.038011099296909379e-08,4.410226850382059638e-08,1.595589876174926758e+00,-1.646585762500762939e-02,-1.922458223998546600e-02
6.973000000000000000e+03,1.380000019073486328e+01,3.400000095367431641e+00,1.045632735952040093e-08,4.475532122683034686e-08,1.595590233802795410e+00,-1.646652072668075562e-02,-1.922423206269741058e-02
6.974000000000000000e+03,1.389999961853027344e+01,3.400000095367431641e+00,1.053254283789328838e-08,4.541312392802865361e-08,1.595590591430664062e+00,-1.646713353693485260e-02,-1.922354102134704590e-02
6.975000000000000000e+03,1.400000000000000000e+01,3.400000095367431641e+00,1.060875831626617583e-08,4.607569437098391063e-08,1.595590829849243164e+00,-1.646769605576992035e-02,-1.922327280044555664e-02
6.976000000000000000e+03,1.410000038146972656e+01,3.400000095367431641e+00,1.068497468281748297e-08,4.674302189755508152e-08,1.595591068267822266e+00,-1.646820828318595886e-02,-1.922284811735153198e-02
6.977000000000000000e+03,1.419999980926513672e+01,3.400000095367431641e+00,1.076119016119037042e-08,4.741510295502848749e-08,1.595591306686401367e+00,-1.646867208182811737e-02,-1.922226883471012115e-02
6.978000000000000000e+03,1.430000019073486328e+01,3.400000095367431641e+00,1.083740652774167756e-08,4.809195175425884372e-08,1.595591425895690918e+00,-1.646908558905124664e-02,-1.922210492193698883e-02
6.979000000000000000e+03,1.439999961853027344e+01,3.400000095367431641e+00,1.091362111793614531e-08,4.877355053167775623e-08,1.595591664314270020e+00,-1.646944507956504822e-02,-1.922158710658550262e-02
6.980000000000000000e+03,1.450000000000000000e+01,3.400000095367431641e+00,1.098983748448745246e-08,4.945991705085361900e-08,1.595591783523559570e+00,-1.646975427865982056e-02,-1.922148466110229492e-02
6.981000000000000000e+03,1.460000038146972656e+01,3.400000095367431641e+00,1.106605385103875960e-08,5.015104065364539565e-08,1.595591902732849121e+00,-1.647000759840011597e-02,-1.922121644020080566e-02
6.982000000000000000e+03,1.469999980926513672e+01,3.400000095367431641e+00,1.114226932941164705e-08,5.084691778733940737e-08,1.595591902732849121e+00,-1.647020317614078522e-02,-1.922078244388103485e-02
6.983000000000000000e+03,1.480000019073486328e+01,3.400000095367431641e+00,1.121848569596295420e-08,5.154755911007669056e-08,1.595592021942138672e+00,-1.647033728659152985e-02,-1.922075822949409485e-02
6.984000000000000000e+03,1.489999961853027344e+01,3.400000095367431641e+00,1.129470117433584164e-08,5.225295396371620882e-08,1.595592021942138672e+00,-1.647040434181690216e-02,-1.922037266194820404e-02
6.985000000000000000e+03,1.500000000000000000e+01,3.400000095367431641e+00,1.137091665270872909e-08,5.296311300639899855e-08,1.595592021942138672e+00,-1.647040061652660370e-02,-1.922039501368999481e-02
6.986000000000000000e+03,1.510000038146972656e+01,3.400000095367431641e+00,1.144713301926003624e-08,5.367803623812505975e-08,1.595591902732849121e+00,-1.647032052278518677e-02,-1.922024972736835480e-02
6.987000000000000000e+03,1.519999980926513672e+01,3.400000095367431641e+00,1.152334849763292368e-08,5.439770589532599843e-08,1.595591783523559570e+00,-1.647015288472175598e-02,-1.921993494033813477e-02
6.988000000000000000e+03,1.530000019073486328e+01,3.400000095367431641e+00,1.159956486418423083e-08,5.512214329428388737e-08,1.595591664314270020e+00,-1.646989025175571442e-02,-1.922002807259559631e-02
6.989000000000000000e+03,1.539999961853027344e+01,3.400000095367431641e+00,1.167578034255711827e-08,5.585133422414401139e-08,1.595591425895690918e+00,-1.646952144801616669e-02,-1.921976357698440552e-02
6.990000000000000000e+03,1.550000000000000000e+01,3.400000095367431641e+00,1.175199582093000572e-08,5.658528934304740687e-08,1.595591187477111816e+00,-1.646903343498706818e-02,-1.921990886330604553e-02
6.991000000000000000e+03,1.560000038146972656e+01,3.400000095367431641e+00,1.182821218748131287e-08,5.732400509828039503e-08,1.595590829849243164e+00,-1.646840944886207581e-02,-1.921989209949970245e-02
6.992000000000000000e+03,1.569999980926513672e+01,3.400000095367431641e+00,1.190442766585420031e-08,5.806747438441561826e-08,1.595590353012084961e+00,-1.646763272583484650e-02,-1.921971514821052551e-02
6.993000000000000000e+03,1.580000019073486328e+01,3.400000095367431641e+00,1.198064314422708776e-08,5.881570785959411296e-08,1.595589637756347656e+00,-1.646668463945388794e-02,-1.921995915472507477e-02
6.994000000000000000e+03,1.589999961853027344e+01,3.400000095367431641e+00,1.205685862259997521e-08,5.956869131296116393e-08,1.595588922500610352e+00,-1.646554097533226013e-02,-1.921986043453216553e-02
6.995000000000000000e+03,1.600000000000000000e+01,3.400000095367431641e+00,1.213307410097286265e-08,6.032644250808516517e-08,1.595588088035583496e+00,-1.646417938172817230e-02,-1.922019571065902710e-02
6.996000000000000000e+03,1.610000038146972656e+01,3.400000095367431641e+00,1.220929046752416980e-08,6.108895433953875909e-08,1.595586895942687988e+00,-1.646256819367408752e-02,-1.922039501368999481e-02
6.997000000000000000e+03,1.620000076293945312e+01,3.400000095367431641e+00,1.228550594589705725e-08,6.185622680732194567e-08,1.595585584640502930e+00,-1.646067947149276733e-02,-1.922066137194633484e-02
6.998000000000000000e+03,1.629999923706054688e+01,3.400000095367431641e+00,1.236172053609152499e-08,6.262823859515265212e-08,1.595583915710449219e+00,-1.645847782492637634e-02,-1.922062225639820099e-02
6.999000000000000000e+03,1.639999961853027344e+01,3.400000095367431641e+00,1.243793601446441244e-08,6.340502523016766645e-08,1.595582008361816406e+00,-1.645592413842678070e-02,-1.922144368290901184e-02
7.000000000000000000e+03,1.650000000000000000e+01,3.400000095367431641e+00,1.251415060465888018e-08,6.418657250151227345e-08,1.595579624176025391e+00,-1.645297929644584656e-02,-1.922199316322803497e-02
7.001000000000000000e+03,1.660000038146972656e+01,3.400000095367431641e+00,1.259036608303176763e-08,6.497288040918647312e-08,1.595576763153076172e+00,-1.644960045814514160e-02,-1.922267302870750427e-02
7.002000000000000000e+03,1.670000076293945312e+01,3.400000095367431641e+00,1.266658067322623538e-08,6.576394184776290786e-08,1.595573544502258301e+00,-1.644574478268623352e-02,-1.922350935637950897e-02
7.003000000000000000e+03,1.679999923706054688e+01,3.400000095367431641e+00,1.274279437524228342e-08,6.655974971181422006e-08,1.595569610595703125e+00,-1.644136384129524231e-02,-1.922415010631084442e-02
7.004000000000000000e+03,1.689999961853027344e+01,3.400000095367431641e+00,1.281900896543675117e-08,6.736033242304984014e-08,1.595564961433410645e+00,-1.643641106784343719e-02,-1.922577805817127228e-02
7.005000000000000000e+03,1.700000000000000000e+01,3.400000095367431641e+00,1.289522266745279921e-08,6.816567577061505290e-08,1.595559597015380859e+00,-1.643084548413753510e-02,-1.922728866338729858e-02
7.006000000000000000e+03,1.710000038146972656e+01,3.400000095367431641e+00,1.297143636946884726e-08,6.897577975450985832e-08,1.595553398132324219e+00,-1.642462052404880524e-02,-1.922911219298839569e-02
7.007000000000000000e+03,1.720000076293945312e+01,3.400000095367431641e+00,1.304764918330647561e-08,6.979063726930689882e-08,1.595546007156372070e+00,-1.641770824790000916e-02,-1.923130825161933899e-02
7.008000000000000000e+03,1.729999923706054688e+01,3.400000095367431641e+00,1.312386110896568425e-08,7.061024120957881678e-08,1.595537543296813965e+00,-1.641008071601390839e-02,-1.923356391489505768e-02
7.009000000000000000e+03,1.739999961853027344e+01,3.400000095367431641e+00,1.320007303462489290e-08,7.143461289160768501e-08,1.595527768135070801e+00,-1.640173047780990601e-02,-1.923711039125919342e-02
7.010000000000000000e+03,1.750000000000000000e+01,3.400000095367431641e+00,1.327628407210568184e-08,7.226375231539350352e-08,1.595516562461853027e+00,-1.639266870915889740e-02,-1.924089528620243073e-02
7.011000000000000000e+03,1.760000038146972656e+01,3.400000095367431641e+00,1.335249510958647079e-08,7.309764527008155710e-08,1.595503687858581543e+00,-1.638293825089931488e-02,-1.924540847539901733e-02
7.012000000000000000e+03,1.770000076293945312e+01,3.400000095367431641e+00,1.342870525888884004e-08,7.393629886109920335e-08,1.595489025115966797e+00,-1.637261733412742615e-02,-1.925078034400939941e-02
7.013000000000000000e+03,1.779999923706054688e+01,3.400000095367431641e+00,1.350491274365595018e-08,7.477969887759172707e-08,1.595472455024719238e+00,-1.636183634400367737e-02,-1.925677247345447540e-02
7.014000000000000000e+03,1.789999961853027344e+01,3.400000095367431641e+00,1.358112022842306033e-08,7.562786663584120106e-08,1.595453739166259766e+00,-1.635078154504299164e-02,-1.926469989120960236e-02
7.015000000000000000e+03,1.800000000000000000e+01,3.400000095367431641e+00,1.365732682501175077e-08,7.648079503042026772e-08,1.595432758331298828e+00,-1.633972488343715668e-02,-1.927358843386173248e-02
7.016000000000000000e+03,1.810000038146972656e+01,3.400000095367431641e+00,1.373353253342202152e-08,7.733848406132892706e-08,1.595409512519836426e+00,-1.632903143763542175e-02,-1.928401738405227661e-02
7.017000000000000000e+03,1.820000076293945312e+01,3.400000095367431641e+00,1.380973646547545286e-08,7.820092662313982146e-08,1.595383763313293457e+00,-1.631917618215084076e-02,-1.929618604481220245e-02
7.018000000000000000e+03,1.829999923706054688e+01,3.400000095367431641e+00,1.388593773299362510e-08,7.906811561042559333e-08,1.595355749130249023e+00,-1.631077378988265991e-02,-1.930990070104598999e-02
7.019000000000000000e+03,1.839999961853027344e+01,3.400000095367431641e+00,1.396213900051179735e-08,7.994007944489567308e-08,1.595325350761413574e+00,-1.630458608269691467e-02,-1.932648941874504089e-02
7.020000000000000000e+03,1.850000000000000000e+01,3.400000095367431641e+00,1.403833849167313019e-08,8.081679681026798789e-08,1.595292925834655762e+00,-1.630154438316822052e-02,-1.934491656720638275e-02
7.021000000000000000e+03,1.860000038146972656e+01,3.400000095367431641e+00,1.411453620647762364e-08,8.169827481196989538e-08,1.595258831977844238e+00,-1.630274765193462372e-02,-1.936559937894344330e-02
7.022000000000000000e+03,1.870000076293945312e+01,3.400000095367431641e+00,1.419073214492527768e-08,8.258451345000139554e-08,1.595223665237426758e+00,-1.630946248769760132e-02,-1.938843913376331329e-02
7.023000000000000000e+03,1.879999923706054688e+01,3.400000095367431641e+00,1.426692541883767262e-08,8.347548430265305797e-08,1.595188021659851074e+00,-1.632308401167392731e-02,-1.941275037825107574e-02
7.024000000000000000e+03,1.889999961853027344e+01,3.400000095367431641e+00,1.434311958092848727e-08,8.437123710791638587e-08,1.595152974128723145e+00,-1.634508930146694183e-02,-1.943911425769329071e-02
7.025000000000000000e+03,1.900000000000000000e+01,3.400000095367431641e+00,1.441931196666246251e-08,8.527175054950930644e-08,1.595119476318359375e+00,-1.637693494558334351e-02,-1.946546696126461029e-02
7.026000000000000000e+03,1.910000038146972656e+01,3.400000095367431641e+00,1.449550346421801805e-08,8.617701752200446208e-08,1.595088958740234375e+00,-1.641992852091789246e-02,-1.949085481464862823e-02
7.027000000000000000e+03,1.920000076293945312e+01,3.400000095367431641e+00,1.457169407359515390e-08,8.708704513082921039e-08,1.595062732696533203e+00,-1.647504232823848724e-02,-1.951348222792148590e-02
7.028000000000000000e+03,1.929999923706054688e+01,3.400000095367431641e+00,1.464788379479387004e-08,8.800181205970147857e-08,1.595041990280151367e+00,-1.654272340238094330e-02,-1.953069493174552917e-02
7.029000000000000000e+03,1.939999961853027344e+01,3.400000095367431641e+00,1.472407529234942558e-08,8.892136094118541223e-08,1.595027685165405273e+00,-1.662268303334712982e-02,-1.954096928238868713e-02
7.030000000000000000e+03,1.950000000000000000e+01,3.400000095367431641e+00,1.480026767808340082e-08,8.984567045899893856e-08,1.595020174980163574e+00,-1.671371608972549438e-02,-1.954022422432899475e-02
7.031000000000000000e+03,1.960000038146972656e+01,3.400000095367431641e+00,1.487646095199579577e-08,9.077474061314205755e-08,1.595019459724426270e+00,-1.681360974907875061e-02,-1.952590979635715485e-02
7.032000000000000000e+03,1.970000076293945312e+01,3.400000095367431641e+00,1.495265600226503011e-08,9.170857850904212683e-08,1.595024347305297852e+00,-1.691918075084686279e-02,-1.949541084468364716e-02
7.033000000000000000e+03,1.979999923706054688e+01,3.400000095367431641e+00,1.502885282889110385e-08,9.264716993584443117e-08,1.595033288002014160e+00,-1.702644675970077515e-02,-1.944641955196857452e-02
7.034000000000000000e+03,1.989999961853027344e+01,3.400000095367431641e+00,1.510505143187401700e-08,9.359054331525840098e-08,1.595043540000915527e+00,-1.713096722960472107e-02,-1.937917433679103851e-02
7.035000000000000000e+03,2.000000000000000000e+01,3.400000095367431641e+00,1.518125358757060894e-08,9.453869154185667867e-08,1.595052361488342285e+00,-1.722827926278114319e-02,-1.929284259676933289e-02
7.036000000000000000e+03,0.000000000000000000e+00,3.500000000000000000e+00,5.532588660226899402e-38,5.943821835098753303e-39,1.423410534858703613e+00,4.270231425762176514e-01,-2.697758674621582031e-01
7.037000000000000000e+03,1.000000014901161194e-01,3.500000000000000000e+00,6.168111854609747979e-11,-3.340082030400814972e-11,1.416584372520446777e+00,4.042693078517913818e-01,-3.015663921833038330e-01
7.038000000000000000e+03,2.000000029802322388e-01,3.500000000000000000e+00,1.239756769466637820e-10,-5.976567157839340894e-11,1.423547387123107910e+00,3.845390677452087402e-01,-2.770948708057403564e-01
7.039000000000000000e+03,3.000000119209289551e-01,3.500000000000000000e+00,1.869105148433192198e-10,-7.925227141214463700e-11,1.430786371231079102e+00,3.638496398925781250e-01,-2.544174194335937500e-01
7.040000000000000000e+03,4.000000059604644775e-01,3.500000000000000000e+00,2.505084195636442246e-10,-9.199448841590296411e-11,1.438262581825256348e+00,3.423546254634857178e-01,-2.332969903945922852e-01
7.041000000000000000e+03,5.000000000000000000e-01,3.500000000000000000e+00,3.147850036189225875e-10,-9.810470491533607174e-11,1.445888161659240723e+00,3.202655315399169922e-01,-2.135228216648101807e-01
7.042000000000000000e+03,6.000000238418579102e-01,3.500000000000000000e+00,3.797465952803946720e-10,-9.767745640099079196e-11,1.453541636466979980e+00,2.978295683860778809e-01,-1.949240118265151978e-01
7.043000000000000000e+03,6.999999880790710449e-01,3.500000000000000000e+00,4.453891422340205963e-10,-9.079374058140743387e-11,1.461086630821228027e+00,2.753075957298278809e-01,-1.773747652769088745e-01
7.044000000000000000e+03,8.000000119209289551e-01,3.500000000000000000e+00,5.116987944475681616e-10,-7.752525704729507083e-11,1.468388319015502930e+00,2.529547512531280518e-01,-1.607926934957504272e-01
7.045000000000000000e+03,8.999999761581420898e-01,3.500000000000000000e+00,5.786523482598227019e-10,-5.793824101041344932e-11,1.475326538085937500e+00,2.310058325529098511e-01,-1.451316922903060913e-01
7.046000000000000000e+03,1.000000000000000000e+00,3.500000000000000000e+00,6.462192447820314101e-10,-3.209638110845958181e-11,1.481804728507995605e+00,2.096655666828155518e-01,-1.303726583719253540e-01
7.047000000000000000e+03,1.100000023841857910e+00,3.500000000000000000e+00,7.143631242101378120e-10,-6.301933259088288164e-14,1.487752556800842285e+00,1.891037672758102417e-01,-1.165132820606231689e-01
7.048000000000000000e+03,1.200000047683715820e+00,3.500000000000000000e+00,7.830436299371967834e-10,3.809758411521535493e-11,1.493126630783081055e+00,1.694540530443191528e-01,-1.035592555999755859e-01
7.049000000000000000e+03,1.299999952316284180e+00,3.500000000000000000e+00,8.522180183767602557e-10,8.231957476789730777e-11,1.497907519340515137e+00,1.508153825998306274e-01,-9.151714295148849487e-02
7.050000000000000000e+03,1.399999976158142090e+00,3.500000000000000000e+00,9.218427687862629227e-10,1.325356629999774327e-10,1.502095580101013184e+00,1.332551240921020508e-01,-8.038949966430664062e-02
7.051000000000000000e+03,1.500000000000000000e+00,3.500000000000000000e+00,9.918743604231394784e-10,1.886771017201027689e-10,1.505706906318664551e+00,1.168131381273269653e-01,-7.017170637845993042e-02
7.052000000000000000e+03,1.600000023841857910e+00,3.500000000000000000e+00,1.062270382767849242e-09,2.506743423946744542e-10,1.508768677711486816e+00,1.015060022473335266e-01,-6.085085496306419373e-02
7.053000000000000000e+03,1.700000047683715820e+00,3.500000000000000000e+00,1.132990257168842163e-09,3.184577601622606835e-10,1.511315941810607910e+00,8.733107149600982666e-02,-5.240545049309730530e-02
7.054000000000000000e+03,1.799999952316284180e+00,3.500000000000000000e+00,1.203995236842558825e-09,3.919579660838223845e-10,1.513388037681579590e+00,7.427033782005310059e-02,-4.480607435107231140e-02
7.055000000000000000e+03,1.899999976158142090e+00,3.500000000000000000e+00,1.275249461585303834e-09,4.711070422658281132e-10,1.515026926994323730e+00,6.229364499449729919e-02,-3.801663964986801147e-02
7.056000000000000000e+03,2.000000000000000000e+00,3.500000000000000000e+00,1.346719402661733511e-09,5.558384308379515915e-10,1.516274929046630859e+00,5.136171355843544006e-02,-3.199550881981849670e-02
7.057000000000000000e+03,2.099999904632568359e+00,3.500000000000000000e+00,1.418373862804855889e-09,6.460876278424620978e-10,1.517173528671264648e+00,4.142846539616584778e-02,-2.669713459908962250e-02
7.058000000000000000e+03,2.200000047683715820e+00,3.500000000000000000e+00,1.490184864394450415e-09,7.417930714126441671e-10,1.517762660980224609e+00,3.244301304221153259e-02,-2.207341231405735016e-02
7.059000000000000000e+03,2.299999952316284180e+00,3.500000000000000000e+00,1.562126428211740858e-09,8.428952535943778912e-10,1.518080472946166992e+00,2.435147576034069061e-02,-1.807455532252788544e-02
7.060000000000000000e+03,2.400000095367431641e+00,3.500000000000000000e+00,1.634175794684722405e-09,9.493384967029783184e-10,1.518162131309509277e+00,1.709812507033348083e-02,-1.465078070759773254e-02
7.061000000000000000e+03,2.500000000000000000e+00,3.500000000000000000e+00,1.706311536509019788e-09,1.061069343499809747e-09,1.518040657043457031e+00,1.062669605016708374e-02,-1.175241824239492416e-02
7.062000000000000000e+03,2.599999904632568359e+00,3.500000000000000000e+00,1.778515335004726694e-09,1.178038333549125127e-09,1.517746090888977051e+00,4.881098400801420212e-03,-9.331372566521167755e-03
7.063000000000000000e+03,2.700000047683715820e+00,3.500000000000000000e+00,1.850770869893381132e-09,1.300199170550797589e-09,1.517305850982666016e+00,-1.938017521752044559e-04,-7.341159973293542862e-03
7.064000000000000000e+03,2.799999952316284180e+00,3.500000000000000000e+00,1.923063264186453125e-09,1.427508000695354440e-09,1.516745090484619141e+00,-4.651613533496856689e-03,-5.737336818128824234e-03
7.065000000000000000e+03,2.900000095367431641e+00,3.500000000000000000e+00,1.995379861341461947e-09,1.559925300043119023e-09,1.516086220741271973e+00,-8.544090203940868378e-03,-4.478270187973976135e-03
7.066000000000000000e+03,3.000000000000000000e+00,3.500000000000000000e+00,2.067709559128161345e-09,1.697413209988951621e-09,1.515349268913269043e+00,-1.192072685807943344e-02,-3.524575615301728249e-03
7.067000000000000000e+03,3.099999904632568359e+00,3.500000000000000000e+00,2.140043031673144469e-09,1.839937868730601167e-09,1.514552235603332520e+00,-1.482860930263996124e-02,-2.839966444298624992e-03
7.068000000000000000e+03,3.200000047683715820e+00,3.500000000000000000e+00,2.212371841281424167e-09,1.987468190023378156e-09,1.513710975646972656e+00,-1.731223613023757935e-02,-2.390778390690684319e-03
7.069000000000000000e+03,3.299999952316284180e+00,3.500000000000000000e+00,2.284689104570247764e-09,2.139974863979432484e-09,1.512839436531066895e+00,-1.941341161727905273e-02,-2.145951148122549057e-03
7.070000000000000000e+03,3.400000095367431641e+00,3.500000000000000000e+00,2.356989270424492133e-09,2.297432466491500236e-09,1.511949777603149414e+00,-2.117126248776912689e-02,-2.077457029372453690e-03
7.071000000000000000e+03,3.500000000000000000e+00,3.500000000000000000e+00,2.429267231818243999e-09,2.459816128563829807e-09,1.511052489280700684e+00,-2.262218855321407318e-02,-2.159455791115760803e-03
7.072000000000000000e+03,3.599999904632568359e+00,3.500000000000000000e+00,2.501519436037824562e-09,2.627104755958953319e-09,1.510156750679016113e+00,-2.379993908107280731e-02,-2.368922578170895576e-03
7.073000000000000000e+03,3.700000047683715820e+00,3.500000000000000000e+00,2.573742774458764870e-09,2.799279252840847221e-09,1.509270310401916504e+00,-2.473566494882106781e-02,-2.685015089809894562e-03
7.074000000000000000e+03,3.799999952316284180e+00,3.500000000000000000e+00,2.645935026635015674e-09,2.976321189507302734e-09,1.508399486541748047e+00,-2.545799128711223602e-02,-3.088927129283547401e-03
7.075000000000000000e+03,3.900000095367431641e+00,3.500000000000000000e+00,2.718094638254342499e-09,3.158215688969789881e-09,1.507549643516540527e+00,-2.599314413964748383e-02,-3.564239013940095901e-03
7.076000000000000000e+03,4.000000000000000000e+00,3.500000000000000000e+00,2.790220055004510868e-09,3.344947430150568835e-09,1.506725311279296875e+00,-2.636503800749778748e-02,-4.096020478755235672e-03
7.077000000000000000e+03,4.099999904632568359e+00,3.500000000000000000e+00,2.862310832796310933e-09,3.536504200596368719e-09,1.505929827690124512e+00,-2.659541927278041840e-02,-4.671427886933088303e-03
7.078000000000000000e+03,4.199999809265136719e+00,3.500000000000000000e+00,2.934366749585137768e-09,3.732874898076943282e-09,1.505166053771972656e+00,-2.670397050678730011e-02,-5.279015284031629562e-03
7.079000000000000000e+03,4.300000190734863281e+00,3.500000000000000000e+00,3.006388471504806148e-09,3.934050418763490597e-09,1.504435658454895020e+00,-2.670845575630664825e-02,-5.908930208534002304e-03
7.080000000000000000e+03,4.400000095367431641e+00,3.500000000000000000e+00,3.078375332421501298e-09,4.140019882470369339e-09,1.503740429878234863e+00,-2.662483602762222290e-02,-6.552275270223617554e-03
7.081000000000000000e+03,4.500000000000000000e+00,3.500000000000000000e+00,3.150328664602852768e-09,4.350776183770221905e-09,1.503080844879150391e+00,-2.646740712225437164e-02,-7.201902568340301514e-03
7.082000000000000000e+03,4.599999904632568359e+00,3.500000000000000000e+00,3.222249134182675334e-09,4.566313105414110396e-09,1.502457499504089355e+00,-2.624891139566898346e-02,-7.851381786167621613e-03
7.083000000000000000e+03,4.699999809265136719e+00,3.500000000000000000e+00,3.294137851383993620e-09,4.786624874242306760e-09,1.501870393753051758e+00,-2.598067373037338257e-02,-8.495341055095195770e-03
7.084000000000000000e+03,4.800000190734863281e+00,3.500000000000000000e+00,3.365996370519042102e-09,5.011706161184292796e-09,1.501319169998168945e+00,-2.567270211875438690e-02,-9.129364974796772003e-03
7.085000000000000000e+03,4.900000095367431641e+00,3.500000000000000000e+00,3.437824913632425705e-09,5.241551637169550304e-09,1.500803232192993164e+00,-2.533381432294845581e-02,-9.749446064233779907e-03
7.086000000000000000e+03,5.000000000000000000e+00,3.500000000000000000e+00,3.509625479125588754e-09,5.476157749484400483e-09,1.500321745872497559e+00,-2.497172541916370392e-02,-1.035281550139188766e-02
7.087000000000000000e+03,5.099999904632568359e+00,3.500000000000000000e+00,3.581399399266160799e-09,5.715521833593584233e-09,1.499873638153076172e+00,-2.459316328167915344e-02,-1.093694847077131271e-02
7.088000000000000000e+03,5.199999809265136719e+00,3.500000000000000000e+00,3.653147784277166465e-09,5.959640780872632604e-09,1.499457716941833496e+00,-2.420395426452159882e-02,-1.149994600564241409e-02
7.089000000000000000e+03,5.300000190734863281e+00,3.500000000000000000e+00,3.724872632560050079e-09,6.208513703143125895e-09,1.499072790145874023e+00,-2.380911074578762054e-02,-1.204046327620744705e-02
7.090000000000000000e+03,5.400000095367431641e+00,3.500000000000000000e+00,3.796574610248626414e-09,6.462136159512965605e-09,1.498717427253723145e+00,-2.341291680932044983e-02,-1.255720295011997223e-02
7.091000000000000000e+03,5.500000000000000000e+00,3.500000000000000000e+00,3.868255049610525020e-09,6.720507705892941885e-09,1.498390197753906250e+00,-2.301899902522563934e-02,-1.304976828396320343e-02
7.092000000000000000e+03,5.599999904632568359e+00,3.500000000000000000e+00,3.939915949047190225e-09,6.983627454104635035e-09,1.498089671134948730e+00,-2.263039909303188324e-02,-1.351770944893360138e-02
7.093000000000000000e+03,5.699999809265136719e+00,3.500000000000000000e+00,4.011558196737041726e-09,7.251494515969625354e-09,1.497814297676086426e+00,-2.224963717162609100e-02,-1.396092399954795837e-02
7.094000000000000000e+03,5.800000190734863281e+00,3.500000000000000000e+00,4.083183569036918925e-09,7.524109335577122692e-09,1.497562766075134277e+00,-2.187876962125301361e-02,-1.437962055206298828e-02
7.095000000000000000e+03,5.900000095367431641e+00,3.500000000000000000e+00,4.154792510036031672e-09,7.801467916124238400e-09,1.497333526611328125e+00,-2.151945047080516815e-02,-1.477383449673652649e-02
7.096000000000000000e+03,6.000000000000000000e+00,3.500000000000000000e+00,4.226386796091219367e-09,8.083572922146231576e-09,1.497125148773193359e+00,-2.117297053337097168e-02,-1.514429878443479538e-02
7.097000000000000000e+03,6.099999904632568359e+00,3.500000000000000000e+00,4.297966871291691859e-09,8.370423465464682522e-09,1.496936082839965820e+00,-2.084030956029891968e-02,-1.549151726067066193e-02
7.098000000000000000e+03,6.199999809265136719e+00,3.500000000000000000e+00,4.369534511994288550e-09,8.662019546079591237e-09,1.496765255928039551e+00,-2.052216976881027222e-02,-1.581618376076221466e-02
7.099000000000000000e+03,6.300000190734863281e+00,3.500000000000000000e+00,4.441091050466638990e-09,8.958362940347797121e-09,1.496611118316650391e+00,-2.021901868283748627e-02,-1.611915975809097290e-02
7.100000000000000000e+03,6.400000095367431641e+00,3.500000000000000000e+00,4.512636042619533328e-09,9.259450983734041074e-09,1.496472597122192383e+00,-1.993112452328205109e-02,-1.640100963413715363e-02
7.101000000000000000e+03,6.500000000000000000e+00,3.500000000000000000e+00,4.584171708899020814e-09,9.565284564416742796e-09,1.496348381042480469e+00,-1.965857669711112976e-02,-1.666288822889328003e-02
7.102000000000000000e+03,6.599999904632568359e+00,3.500000000000000000e+00,4.655698049305101449e-09,9.875864570574321988e-09,1.496237277984619141e+00,-1.940131932497024536e-02,-1.690562069416046143e-02
7.103000000000000000e+03,6.699999809265136719e+00,3.500000000000000000e+00,4.727216396105404783e-09,1.019119189038519835e-08,1.496138453483581543e+00,-1.915917359292507172e-02,-1.713014021515846252e-02
7.104000000000000000e+03,6.800000190734863281e+00,3.500000000000000000e+00,4.798727637478350516e-09,1.051126830020621128e-08,1.496050596237182617e+00,-1.893185265362262726e-02,-1.733747497200965881e-02
7.105000000000000000e+03,6.900000095367431641e+00,3.500000000000000000e+00,4.870231773423938648e-09,1.083609024732368198e-08,1.495972871780395508e+00,-1.871899515390396118e-02,-1.752829179167747498e-02
7.106000000000000000e+03,7.000000000000000000e+00,3.500000000000000000e+00,4.941730136209798729e-09,1.116566128445128925e-08,1.495904445648193359e+00,-1.852016523480415344e-02,-1.770379580557346344e-02
7.107000000000000000e+03,7.099999904632568359e+00,3.500000000000000000e+00,5.013222281746720910e-09,1.149998052341061339e-08,1.495844483375549316e+00,-1.833487488329410553e-02,-1.786481030285358429e-02
7.108000000000000000e+03,7.199999809265136719e+00,3.500000000000000000e+00,5.084709986391544589e-09,1.183904885238007409e-08,1.495792031288146973e+00,-1.816259697079658508e-02,-1.801223494112491608e-02
7.109000000000000000e+03,7.300000190734863281e+00,3.500000000000000000e+00,5.156193694233479619e-09,1.218286893589493047e-08,1.495746493339538574e+00,-1.800277456641197205e-02,-1.814702525734901428e-02
7.110000000000000000e+03,7.400000095367431641e+00,3.500000000000000000e+00,5.227672517094106297e-09,1.253143810941992342e-08,1.495707154273986816e+00,-1.785483025014400482e-02,-1.826975494623184204e-02
7.111000000000000000e+03,7.500000000000000000e+00,3.500000000000000000e+00,5.299148231330264025e-09,1.288475726113347264e-08,1.495673418045043945e+00,-1.771817356348037720e-02,-1.838150061666965485e-02
7.112000000000000000e+03,7.599999904632568359e+00,3.500000000000000000e+00,5.370620836941952803e-09,1.324282905557083723e-08,1.495644688606262207e+00,-1.759221218526363373e-02,-1.848295889794826508e-02
7.113000000000000000e+03,7.699999809265136719e+00,3.500000000000000000e+00,5.442090333929172630e-09,1.360565171637517778e-08,1.495620489120483398e+00,-1.747635193169116974e-02,-1.857487112283706665e-02
7.114000000000000000e+03,7.800000190734863281e+00,3.500000000000000000e+00,5.513557610470343207e-09,1.397322879626017311e-08,1.495600223541259766e+00,-1.737000606954097748e-02,-1.865803264081478119e-02
7.115000000000000000e+03,7.900000095367431641e+00,3.500000000000000000e+00,5.585022666565464533e-09,1.434555674251214441e-08,1.495583653450012207e+00,-1.727259717881679535e-02,-1.873284764587879181e-02
7.116000000000000000e+03,8.000000000000000000e+00,3.500000000000000000e+00,5.656485946303746459e-09,1.472263733148793108e-08,1.495570063591003418e+00,-1.718356274068355560e-02,-1.880022324621677399e-02
7.117000000000000000e+03,8.100000381469726562e+00,3.500000000000000000e+00,5.727947449685188985e-09,1.510447411590121192e-08,1.495559334754943848e+00,-1.710235700011253357e-02,-1.886076666414737701e-02
7.118000000000000000e+03,8.199999809265136719e+00,3.500000000000000000e+00,5.799407176709792111e-09,1.549106087850304903e-08,1.495550990104675293e+00,-1.702844910323619843e-02,-1.891467347741127014e-02
7.119000000000000000e+03,8.300000190734863281e+00,3.500000000000000000e+00,5.870866015555975537e-09,1.588240650107763940e-08,1.495544791221618652e+00,-1.696133054792881012e-02,-1.896311715245246887e-02
7.120000000000000000e+03,8.399999618530273438e+00,3.500000000000000000e+00,5.942323078045319562e-09,1.627850210184078605e-08,1.495540380477905273e+00,-1.690051704645156860e-02,-1.900586672127246857e-02
7.121000000000000000e+03,8.500000000000000000e+00,3.500000000000000000e+00,6.013780140534663587e-09,1.667935656257668597e-08,1.495537638664245605e+00,-1.684554107487201691e-02,-1.904411613941192627e-02
7.122000000000000000e+03,8.600000381469726562e+00,3.500000000000000000e+00,6.085236314845587913e-09,1.708496633057166036e-08,1.495536327362060547e+00,-1.679596304893493652e-02,-1.907775551080703735e-02
7.123000000000000000e+03,8.699999809265136719e+00,3.500000000000000000e+00,6.156691600978092538e-09,1.749532962946886983e-08,1.495536088943481445e+00,-1.675136014819145203e-02,-1.910718530416488647e-02
7.124000000000000000e+03,8.800000190734863281e+00,3.500000000000000000e+00,6.228146443021387313e-09,1.791045178833883256e-08,1.495536923408508301e+00,-1.671133935451507568e-02,-1.913333125412464142e-02
7.125000000000000000e+03,8.899999618530273438e+00,3.500000000000000000e+00,6.299600396886262388e-09,1.833032570175419096e-08,1.495538592338562012e+00,-1.667552627623081207e-02,-1.915580965578556061e-02
7.126000000000000000e+03,9.000000000000000000e+00,3.500000000000000000e+00,6.371054794840347313e-09,1.875496025149914203e-08,1.495540857315063477e+00,-1.664356887340545654e-02,-1.917567290365695953e-02
7.127000000000000000e+03,9.100000381469726562e+00,3.500000000000000000e+00,6.442508748705222388e-09,1.918435188486000698e-08,1.495543837547302246e+00,-1.661513932049274445e-02,-1.919266954064369202e-02
7.128000000000000000e+03,9.199999809265136719e+00,3.500000000000000000e+00,6.513961814391677763e-09,1.961849527276626759e-08,1.495547175407409668e+00,-1.658993028104305267e-02,-1.920707523822784424e-02
7.129000000000000000e+03,9.300000190734863281e+00,3.500000000000000000e+00,6.585415324167342987e-09,2.005740107335896028e-08,1.495550870895385742e+00,-1.656765304505825043e-02,-1.921968534588813782e-02
7.130000000000000000e+03,9.399999618530273438e+00,3.500000000000000000e+00,6.656868389853798362e-09,2.050106040485388803e-08,1.495554804801940918e+00,-1.654804125428199768e-02,-1.923000253736972809e-02
7.131000000000000000e+03,9.500000000000000000e+00,3.500000000000000000e+00,6.728321899629463587e-09,2.094948037267840846e-08,1.495558977127075195e+00,-1.653084717690944672e-02,-1.923896558582782745e-02
7.132000000000000000e+03,9.600000381469726562e+00,3.500000000000000000e+00,6.799775409405128812e-09,2.140265920047568216e-08,1.495563268661499023e+00,-1.651583798229694366e-02,-1.924622245132923126e-02
7.133000000000000000e+03,9.699999809265136719e+00,3.500000000000000000e+00,6.871228031002374337e-09,2.186059155917519092e-08,1.495567679405212402e+00,-1.650280319154262543e-02,-1.925194822251796722e-02
7.134000000000000000e+03,9.800000190734863281e+00,3.500000000000000000e+00,6.942681984867249412e-09,2.232328455420429236e-08,1.495572090148925781e+00,-1.649154536426067352e-02,-1.925684697926044464e-02
7.135000000000000000e+03,9.899999618530273438e+00,3.500000000000000000e+00,7.014134606464494937e-09,2.279073285649246827e-08,1.495576500892639160e+00,-1.648188382387161255e-02,-1.926033571362495422e-02
7.136000000000000000e+03,1.000000000000000000e+01,3.500000000000000000e+00,7.085588560329370011e-09,2.326294357146707625e-08,1.495580792427062988e+00,-1.647365093231201172e-02,-1.926327683031558990e-02
7.137000000000000000e+03,1.010000038146972656e+01,3.500000000000000000e+00,7.157042514194245086e-09,2.373991137005759811e-08,1.495585083961486816e+00,-1.646669767796993256e-02,-1.926524192094802856e-02
7.138000000000000000e+03,1.019999980926513672e+01,3.500000000000000000e+00,7.228495579880700461e-09,2.422163447590719443e-08,1.495589137077331543e+00,-1.646088063716888428e-02,-1.926632411777973175e-02
7.139000000000000000e+03,1.030000019073486328e+01,3.500000000000000000e+00,7.299949977834785386e-09,2.470811999444322282e-08,1.495593190193176270e+00,-1.645607315003871918e-02,-1.926719769835472107e-02
7.140000000000000000e+03,1.039999961853027344e+01,3.500000000000000000e+00,7.371403487610450611e-09,2.519935904388148629e-08,1.495597124099731445e+00,-1.645215973258018494e-02,-1.926718093454837799e-02
7.141000000000000000e+03,1.050000000000000000e+01,3.500000000000000000e+00,7.442857441475325686e-09,2.569536228236302122e-08,1.495600819587707520e+00,-1.644903607666492462e-02,-1.926711760461330414e-02
7.142000000000000000e+03,1.060000038146972656e+01,3.500000000000000000e+00,7.514311839429410611e-09,2.619612438081730943e-08,1.495604395866394043e+00,-1.644660346210002899e-02,-1.926650293171405792e-02
7.143000000000000000e+03,1.069999980926513672e+01,3.500000000000000000e+00,7.585765793294285686e-09,2.670163823381699331e-08,1.495607852935791016e+00,-1.644477620720863342e-02,-1.926539652049541473e-02
7.144000000000000000e+03,1.080000019073486328e+01,3.500000000000000000e+00,7.657220635337580461e-09,2.721191805221678806e-08,1.495611071586608887e+00,-1.644347421824932098e-02,-1.926442794501781464e-02
7.145000000000000000e+03,1.089999961853027344e+01,3.500000000000000000e+00,7.728674589202455536e-09,2.772695140151881787e-08,1.495614171028137207e+00,-1.644263043999671936e-02,-1.926287822425365448e-02
7.146000000000000000e+03,1.100000000000000000e+01,3.500000000000000000e+00,7.800130319424170011e-09,2.824674716350727977e-08,1.495617151260375977e+00,-1.644217781722545624e-02,-1.926155574619770050e-02
7.147000000000000000e+03,1.110000038146972656e+01,3.500000000000000000e+00,7.871585161467464786e-09,2.877130356182533433e-08,1.495619893074035645e+00,-1.644206047058105469e-02,-1.925992406904697418e-02
7.148000000000000000e+03,1.119999980926513672e+01,3.500000000000000000e+00,7.943040003510759561e-09,2.930061171468878456e-08,1.495622396469116211e+00,-1.644222810864448547e-02,-1.925801113247871399e-02
7.149000000000000000e+03,1.130000019073486328e+01,3.500000000000000000e+00,8.014494845554054336e-09,2.983468760930918506e-08,1.495624899864196777e+00,-1.644263416528701782e-02,-1.925642602145671844e-02
7.150000000000000000e+03,1.139999961853027344e+01,3.500000000000000000e+00,8.085949687597349111e-09,3.037351348211814184e-08,1.495627164840698242e+00,-1.644323952496051788e-02,-1.925442181527614594e-02
7.151000000000000000e+03,1.150000000000000000e+01,3.500000000000000000e+00,8.157405417819063587e-09,3.091710354397037008e-08,1.495629310607910156e+00,-1.644400693476200104e-02,-1.925278641283512115e-02
7.152000000000000000e+03,1.160000038146972656e+01,3.500000000000000000e+00,8.228861148040778062e-09,3.146545424215219100e-08,1.495631217956542969e+00,-1.644490472972393036e-02,-1.925096288323402405e-02
7.153000000000000000e+03,1.169999980926513672e+01,3.500000000000000000e+00,8.300316878262492537e-09,3.201855847123624699e-08,1.495633125305175781e+00,-1.644590683281421661e-02,-1.924896426498889923e-02
7.154000000000000000e+03,1.180000019073486328e+01,3.500000000000000000e+00,8.371772608484207012e-09,3.257642688936357445e-08,1.495634794235229492e+00,-1.644698716700077057e-02,-1.924738101661205292e-02
7.155000000000000000e+03,1.189999961853027344e+01,3.500000000000000000e+00,8.443227450527501787e-09,3.313905239110681578e-08,1.495636343955993652e+00,-1.644812524318695068e-02,-1.924545504152774811e-02
7.156000000000000000e+03,1.200000000000000000e+01,3.500000000000000000e+00,8.514684068927635963e-09,3.370643852917964978e-08,1.495637893676757812e+00,-1.644930243492126465e-02,-1.924396120011806488e-02
7.157000000000000000e+03,1.210000038146972656e+01,3.500000000000000000e+00,8.586139799149350438e-09,3.427858530358207645e-08,1.495639204978942871e+00,-1.645050384104251862e-02,-1.924233138561248779e-02
7.158000000000000000e+03,1.219999980926513672e+01,3.500000000000000000e+00,8.657595529371064913e-09,3.485548205617305939e-08,1.495640397071838379e+00,-1.645171456038951874e-02,-1.924056932330131531e-02
7.159000000000000000e+03,1.230000019073486328e+01,3.500000000000000000e+00,8.729052147771199088e-09,3.543714655052099261e-08,1.495641589164733887e+00,-1.645292155444622040e-02,-1.923925429582595825e-02
7.160000000000000000e+03,1.239999961853027344e+01,3.500000000000000000e+00,8.800507877992913564e-09,3.602356457577116089e-08,1.495642662048339844e+00,-1.645411923527717590e-02,-1.923762448132038116e-02
7.161000000000000000e+03,1.250000000000000000e+01,3.500000000000000000e+00,8.871964496393047739e-09,3.661474679006460065e-08,1.495643615722656250e+00,-1.645529456436634064e-02,-1.923644542694091797e-02
7.162000000000000000e+03,1.260000038146972656e+01,3.500000000000000000e+00,8.943421114793181914e-09,3.721068964068763307e-08,1.495644450187683105e+00,-1.645644567906856537e-02,-1.923514530062675476e-02
7.163000000000000000e+03,1.269999980926513672e+01,3.500000000000000000e+00,9.014876845014896389e-09,3.781138246949922177e-08,1.495645284652709961e+00,-1.645756326615810394e-02,-1.923372223973274231e-02
7.164000000000000000e+03,1.280000019073486328e+01,3.500000000000000000e+00,9.086333463415030565e-09,3.841684304006776074e-08,1.495645999908447266e+00,-1.645864360034465790e-02,-1.923275180160999298e-02
7.165000000000000000e+03,1.289999961853027344e+01,3.500000000000000000e+00,9.157789193636745040e-09,3.902705714153853478e-08,1.495646595954895020e+00,-1.645968295633792877e-02,-1.923146471381187439e-02
7.166000000000000000e+03,1.300000000000000000e+01,3.500000000000000000e+00,9.229245812036879215e-09,3.964203543205258029e-08,1.495647192001342773e+00,-1.646068133413791656e-02,-1.923062838613986969e-02
7.167000000000000000e+03,1.310000038146972656e+01,3.500000000000000000e+00,9.300702430437013390e-09,4.026177080618253967e-08,1.495647788047790527e+00,-1.646163500845432281e-02,-1.922966539859771729e-02
7.168000000000000000e+03,1.319999980926513672e+01,3.500000000000000000e+00,9.372159048837147566e-09,4.088626326392841293e-08,1.495648264884948730e+00,-1.646254025399684906e-02,-1.922857202589511871e-02
7.169000000000000000e+03,1.330000019073486328e+01,3.500000000000000000e+00,9.443615667237281741e-09,4.151551991071755765e-08,1.495648741722106934e+00,-1.646340079605579376e-02,-1.922792382538318634e-02
7.170000000000000000e+03,1.339999961853027344e+01,3.500000000000000000e+00,9.515072285637415916e-09,4.214952653569525864e-08,1.495649099349975586e+00,-1.646421104669570923e-02,-1.922694966197013855e-02
7.171000000000000000e+03,1.350000000000000000e+01,3.500000000000000000e+00,9.586528904037550092e-09,4.278830090242990991e-08,1.495649456977844238e+00,-1.646497473120689392e-02,-1.922641322016716003e-02
7.172000000000000000e+03,1.360000038146972656e+01,3.500000000000000000e+00,9.657985522437684267e-09,4.343183235278047505e-08,1.495649814605712891e+00,-1.646569184958934784e-02,-1.922573894262313843e-02
7.173000000000000000e+03,1.369999980926513672e+01,3.500000000000000000e+00,9.729442140837818442e-09,4.408012088674695406e-08,1.495650053024291992e+00,-1.646635867655277252e-02,-1.922492310404777527e-02
7.174000000000000000e+03,1.380000019073486328e+01,3.500000000000000000e+00,9.800898759237952618e-09,4.473317005704302574e-08,1.495650291442871094e+00,-1.646697893738746643e-02,-1.922453753650188446e-02
7.175000000000000000e+03,1.389999961853027344e+01,3.500000000000000000e+00,9.872355377638086793e-09,4.539097631095501129e-08,1.495650529861450195e+00,-1.646755263209342957e-02,-1.922381110489368439e-02
7.176000000000000000e+03,1.400000000000000000e+01,3.500000000000000000e+00,9.943811996038220968e-09,4.605354320119658951e-08,1.495650768280029297e+00,-1.646807789802551270e-02,-1.922351308166980743e-02
7.177000000000000000e+03,1.410000038146972656e+01,3.500000000000000000e+00,1.001526950261677484e-08,4.672087428048143920e-08,1.495651006698608398e+00,-1.646855659782886505e-02,-1.922306045889854431e-02
7.178000000000000000e+03,1.419999980926513672e+01,3.500000000000000000e+00,1.008672523283848932e-08,4.739295533795484516e-08,1.495651125907897949e+00,-1.646898686885833740e-02,-1.922245137393474579e-02
7.179000000000000000e+03,1.430000019073486328e+01,3.500000000000000000e+00,1.015818273941704319e-08,4.806980058447152260e-08,1.495651245117187500e+00,-1.646936871111392975e-02,-1.922226138412952423e-02
7.180000000000000000e+03,1.439999961853027344e+01,3.500000000000000000e+00,1.022963935781717737e-08,4.875139936189043510e-08,1.495651364326477051e+00,-1.646970026195049286e-02,-1.922171935439109802e-02
7.181000000000000000e+03,1.450000000000000000e+01,3.500000000000000000e+00,1.030109597621731155e-08,4.943776588106629788e-08,1.495651483535766602e+00,-1.646998152136802673e-02,-1.922158896923065186e-02
7.182000000000000000e+03,1.460000038146972656e+01,3.500000000000000000e+00,1.037255348279586542e-08,5.012888948385807453e-08,1.495651483535766602e+00,-1.647020876407623291e-02,-1.922129467129707336e-02
7.183000000000000000e+03,1.469999980926513672e+01,3.500000000000000000e+00,1.044400921301757990e-08,5.082476661755208625e-08,1.495651602745056152e+00,-1.647037826478481293e-02,-1.922083087265491486e-02
7.184000000000000000e+03,1.480000019073486328e+01,3.500000000000000000e+00,1.051546671959613377e-08,5.152540794028936944e-08,1.495651602745056152e+00,-1.647048816084861755e-02,-1.922077685594558716e-02
7.185000000000000000e+03,1.489999961853027344e+01,3.500000000000000000e+00,1.058692333799626795e-08,5.223080279392888770e-08,1.495651602745056152e+00,-1.647053472697734833e-02,-1.922035776078701019e-02
7.186000000000000000e+03,1.500000000000000000e+01,3.500000000000000000e+00,1.065837995639640212e-08,5.294096538932535623e-08,1.495651602745056152e+00,-1.647050864994525909e-02,-1.922034099698066711e-02
7.187000000000000000e+03,1.510000038146972656e+01,3.500000000000000000e+00,1.072983746297495600e-08,5.365588506833773863e-08,1.495651483535766602e+00,-1.647040434181690216e-02,-1.922015100717544556e-02
7.188000000000000000e+03,1.519999980926513672e+01,3.500000000000000000e+00,1.080129319319667047e-08,5.437555472553867730e-08,1.495651483535766602e+00,-1.647021435201168060e-02,-1.921978406608104706e-02
7.189000000000000000e+03,1.530000019073486328e+01,3.500000000000000000e+00,1.087275069977522435e-08,5.509999212449656625e-08,1.495651245117187500e+00,-1.646992750465869904e-02,-1.921981759369373322e-02
7.190000000000000000e+03,1.539999961853027344e+01,3.500000000000000000e+00,1.094420642999693882e-08,5.582918305435669026e-08,1.495651125907897949e+00,-1.646953262388706207e-02,-1.921948045492172241e-02
7.191000000000000000e+03,1.550000000000000000e+01,3.500000000000000000e+00,1.101566393657549270e-08,5.656313817326008575e-08,1.495650768280029297e+00,-1.646901480853557587e-02,-1.921954005956649780e-02
7.192000000000000000e+03,1.560000038146972656e+01,3.500000000000000000e+00,1.108712055497562687e-08,5.730185392849307391e-08,1.495650410652160645e+00,-1.646836102008819580e-02,-1.921942271292209625e-02
7.193000000000000000e+03,1.569999980926513672e+01,3.500000000000000000e+00,1.115857717337576105e-08,5.804532321462829714e-08,1.495649933815002441e+00,-1.646754890680313110e-02,-1.921912655234336853e-02
7.194000000000000000e+03,1.580000019073486328e+01,3.500000000000000000e+00,1.123003379177589522e-08,5.879355668980679184e-08,1.495649456977844238e+00,-1.646656170487403870e-02,-1.921922899782657623e-02
7.195000000000000000e+03,1.589999961853027344e+01,3.500000000000000000e+00,1.130149041017602940e-08,5.954654014317384281e-08,1.495648741722106934e+00,-1.646537333726882935e-02,-1.921896263957023621e-02
7.196000000000000000e+03,1.600000000000000000e+01,3.500000000000000000e+00,1.137294702857616358e-08,6.030429489101152285e-08,1.495647907257080078e+00,-1.646395586431026459e-02,-1.921909861266613007e-02
7.197000000000000000e+03,1.610000038146972656e+01,3.500000000000000000e+00,1.144440364697629775e-08,6.106680672246511676e-08,1.495646834373474121e+00,-1.646228320896625519e-02,-1.921906508505344391e-02
7.198000000000000000e+03,1.620000076293945312e+01,3.500000000000000000e+00,1.151586026537643193e-08,6.183407208482094575e-08,1.495645523071289062e+00,-1.646031998097896576e-02,-1.921905577182769775e-02
7.199000000000000000e+03,1.629999923706054688e+01,3.500000000000000000e+00,1.158731510741972670e-08,6.260608387265165220e-08,1.495643973350524902e+00,-1.645802892744541168e-02,-1.921869441866874695e-02
7.200000000000000000e+03,1.639999961853027344e+01,3.500000000000000000e+00,1.165877172581986088e-08,6.338287761309402413e-08,1.495642066001892090e+00,-1.645537279546260834e-02,-1.921913959085941315e-02
7.201000000000000000e+03,1.650000000000000000e+01,3.500000000000000000e+00,1.173022834421999505e-08,6.416442488443863112e-08,1.495639801025390625e+00,-1.645230315625667572e-02,-1.921924762427806854e-02
7.202000000000000000e+03,1.660000038146972656e+01,3.500000000000000000e+00,1.180168407444170953e-08,6.495072568668547319e-08,1.495637059211730957e+00,-1.644877716898918152e-02,-1.921941898763179779e-02
7.203000000000000000e+03,1.670000076293945312e+01,3.500000000000000000e+00,1.187313980466342400e-08,6.574179423068926553e-08,1.495633840560913086e+00,-1.644474454224109650e-02,-1.921966485679149628e-02
7.204000000000000000e+03,1.679999923706054688e+01,3.500000000000000000e+00,1.194459464670671878e-08,6.653760209474057774e-08,1.495630025863647461e+00,-1.644015125930309296e-02,-1.921962387859821320e-02
7.205000000000000000e+03,1.689999961853027344e+01,3.500000000000000000e+00,1.201604948875001355e-08,6.733818480597619782e-08,1.495625615119934082e+00,-1.643494889140129089e-02,-1.922047324478626251e-02
7.206000000000000000e+03,1.700000000000000000e+01,3.500000000000000000e+00,1.208750433079330833e-08,6.814352815354141057e-08,1.495620250701904297e+00,-1.642908342182636261e-02,-1.922108978033065796e-02
7.207000000000000000e+03,1.710000038146972656e+01,3.500000000000000000e+00,1.215895917283660310e-08,6.895363213743621600e-08,1.495614051818847656e+00,-1.642250269651412964e-02,-1.922189630568027496e-02
7.208000000000000000e+03,1.720000076293945312e+01,3.500000000000000000e+00,1.223041312670147818e-08,6.976848965223325649e-08,1.495606899261474609e+00,-1.641516573727130890e-02,-1.922294124960899353e-02
7.209000000000000000e+03,1.729999923706054688e+01,3.500000000000000000e+00,1.230186530420951385e-08,7.058809359250517446e-08,1.495598435401916504e+00,-1.640703715384006500e-02,-1.922390051186084747e-02
7.210000000000000000e+03,1.739999961853027344e+01,3.500000000000000000e+00,1.237331836989596923e-08,7.141247237996140029e-08,1.495588660240173340e+00,-1.639808900654315948e-02,-1.922599598765373230e-02
7.211000000000000000e+03,1.750000000000000000e+01,3.500000000000000000e+00,1.244477143558242460e-08,7.224160469831986120e-08,1.495577335357666016e+00,-1.638832502067089081e-02,-1.922816596925258636e-02
7.212000000000000000e+03,1.760000038146972656e+01,3.500000000000000000e+00,1.251622272491204058e-08,7.307550475843527238e-08,1.495564341545104980e+00,-1.637776382267475128e-02,-1.923090033233165741e-02
7.213000000000000000e+03,1.770000076293945312e+01,3.500000000000000000e+00,1.258767312606323685e-08,7.391415834945291863e-08,1.495549440383911133e+00,-1.636647060513496399e-02,-1.923432759940624237e-02
7.214000000000000000e+03,1.779999923706054688e+01,3.500000000000000000e+00,1.265912175085759372e-08,7.475755126051808475e-08,1.495532393455505371e+00,-1.635455340147018433e-02,-1.923821493983268738e-02
7.215000000000000000e+03,1.789999961853027344e+01,3.500000000000000000e+00,1.273057037565195060e-08,7.560572612419491634e-08,1.495513081550598145e+00,-1.634218357503414154e-02,-1.924389787018299103e-02
7.216000000000000000e+03,1.800000000000000000e+01,3.500000000000000000e+00,1.280201811226788777e-08,7.645865451877398300e-08,1.495491266250610352e+00,-1.632961630821228027e-02,-1.925043389201164246e-02
7.217000000000000000e+03,1.810000038146972656e+01,3.500000000000000000e+00,1.287346407252698555e-08,7.731634354968264233e-08,1.495466828346252441e+00,-1.631720550358295441e-02,-1.925844140350818634e-02
7.218000000000000000e+03,1.820000076293945312e+01,3.500000000000000000e+00,1.294490825642924392e-08,7.817878611149353674e-08,1.495439648628234863e+00,-1.630543358623981476e-02,-1.926818676292896271e-02
7.219000000000000000e+03,1.829999923706054688e+01,3.500000000000000000e+00,1.301634977579624319e-08,7.904597509877930861e-08,1.495409488677978516e+00,-1.629493013024330139e-02,-1.927956752479076385e-02
7.220000000000000000e+03,1.839999961853027344e+01,3.500000000000000000e+00,1.308779129516324247e-08,7.991793893324938836e-08,1.495376706123352051e+00,-1.628650352358818054e-02,-1.929401978850364685e-02
7.221000000000000000e+03,1.850000000000000000e+01,3.500000000000000000e+00,1.315923103817340234e-08,8.079465629862170317e-08,1.495341062545776367e+00,-1.628116145730018616e-02,-1.931065693497657776e-02
7.222000000000000000e+03,1.860000038146972656e+01,3.500000000000000000e+00,1.323066900482672281e-08,8.167614140575096826e-08,1.495303153991699219e+00,-1.628013700246810913e-02,-1.933006942272186279e-02
7.223000000000000000e+03,1.870000076293945312e+01,3.500000000000000000e+00,1.330210519512320388e-08,8.256237293835511082e-08,1.495263338088989258e+00,-1.628488488495349884e-02,-1.935234852135181427e-02
7.224000000000000000e+03,1.879999923706054688e+01,3.500000000000000000e+00,1.337353783270600616e-08,8.345335089643413085e-08,1.495222449302673340e+00,-1.629706844687461853e-02,-1.937702111899852753e-02
7.225000000000000000e+03,1.889999961853027344e+01,3.500000000000000000e+00,1.344497047028880843e-08,8.434910370169745875e-08,1.495181441307067871e+00,-1.631851121783256531e-02,-1.940486952662467957e-02
7.226000000000000000e+03,1.900000000000000000e+01,3.500000000000000000e+00,1.351640133151477130e-08,8.524961003786302172e-08,1.495141625404357910e+00,-1.635109819471836090e-02,-1.943398267030715942e-02
7.227000000000000000e+03,1.910000038146972656e+01,3.500000000000000000e+00,1.358783130456231447e-08,8.615487701035817736e-08,1.495104432106018066e+00,-1.639661937952041626e-02,-1.946349069476127625e-02
7.228000000000000000e+03,1.920000076293945312e+01,3.500000000000000000e+00,1.365926038943143794e-08,8.706490461918292567e-08,1.495071649551391602e+00,-1.645655184984207153e-02,-1.949153468012809753e-02
7.229000000000000000e+03,1.929999923706054688e+01,3.500000000000000000e+00,1.373068769794372201e-08,8.797966444262783625e-08,1.495044827461242676e+00,-1.653178595006465912e-02,-1.951522566378116608e-02
7.230000000000000000e+03,1.939999961853027344e+01,3.500000000000000000e+00,1.380211767099126519e-08,8.889921332411176991e-08,1.495025515556335449e+00,-1.662232354283332825e-02,-1.953259110450744629e-02
7.231000000000000000e+03,1.950000000000000000e+01,3.500000000000000000e+00,1.387354764403880836e-08,8.982351573649793863e-08,1.495014548301696777e+00,-1.672700233757495880e-02,-1.953888498246669769e-02
7.232000000000000000e+03,1.960000038146972656e+01,3.500000000000000000e+00,1.394498028162161063e-08,9.075258589064105763e-08,1.495011925697326660e+00,-1.684330031275749207e-02,-1.953073963522911072e-02
7.233000000000000000e+03,1.970000076293945312e+01,3.500000000000000000e+00,1.401641380738283260e-08,9.168641668111376930e-08,1.495016813278198242e+00,-1.696733012795448303e-02,-1.950467005372047424e-02
7.234000000000000000e+03,1.979999923706054688e+01,3.500000000000000000e+00,1.408784910950089397e-08,9.262499389706135844e-08,1.495026946067810059e+00,-1.709404215216636658e-02,-1.945760287344455719e-02
7.235000000000000000e+03,1.989999961853027344e+01,3.500000000000000000e+00,1.415928707615421445e-08,9.356836727647532825e-08,1.495039343833923340e+00,-1.721769943833351135e-02,-1.938930712640285492e-02
7.236000000000000000e+03,2.000000000000000000e+01,3.500000000000000000e+00,1.423072770734279402e-08,9.451650839764624834e-08,1.495049953460693359e+00,-1.733239740133285522e-02,-1.929887756705284119e-02
7.237000000000000000e+03,0.000000000000000000e+00,3.599999904632568359e+00,5.052845723174512329e-38,4.311841617576784846e-39,1.333280205726623535e+00,3.999840617179870605e-01,-2.768371403217315674e-01
7.238000000000000000e+03,1.000000014901161194e-01,3.599999904632568359e+00,5.777547537610949746e-11,-3.427507583309008510e-11,1.327227711677551270e+00,3.798089623451232910e-01,-3.083827793598175049e-01
7.239000000000000000e+03,2.000000029802322388e-01,3.599999904632568359e+00,1.160935098054594050e-10,-6.158000498412974366e-11,1.333239912986755371e+00,3.618709444999694824e-01,-2.842035889625549316e-01
7.240000000000000000e+03,3.000000119209289551e-01,3.599999904632568359e+00,1.749879685597477419e-10,-8.206894885898208258e-11,1.339602828025817871e+00,3.427305817604064941e-01,-2.617851495742797852e-01
7.241000000000000000e+03,4.000000059604644775e-01,3.599999904632568359e+00,2.344880123406056782e-10,-9.586643284764662098e-11,1.346272230148315430e+00,3.225707709789276123e-01,-2.408369630575180054e-01
7.242000000000000000e+03,5.000000000000000000e-01,3.599999904632568359e+00,2.946140831294741247e-10,-1.030712043492698626e-10,1.353141188621520996e+00,3.016457557678222656e-01,-2.211116105318069458e-01
7.243000000000000000e+03,6.000000238418579102e-01,3.599999904632568359e+00,3.553754512886087014e-10,-1.037616798038598631e-10,1.360063195228576660e+00,2.802501618862152100e-01,-2.024210244417190552e-01
7.244000000000000000e+03,6.999999880790710449e-01,3.599999904632568359e+00,4.167692857492966141e-10,-9.800200928555824476e-11,1.366877794265747070e+00,2.586894035339355469e-01,-1.846404373645782471e-01
7.245000000000000000e+03,8.000000119209289551e-01,3.599999904632568359e+00,4.787814589235495077e-10,-8.584783578458043962e-11,1.373432397842407227e+00,2.372553795576095581e-01,-1.677025854587554932e-01
7.246000000000000000e+03,8.999999761581420898e-01,3.599999904632568359e+00,5.413878789717330164e-10,-6.735109692179719332e-11,1.379598259925842285e+00,2.162094116210937500e-01,-1.515854001045227051e-01
7.247000000000000000e+03,1.000000000000000000e+00,3.599999904632568359e+00,6.045568490264940920e-10,-4.256357419296641353e-11,1.385279059410095215e+00,1.957724094390869141e-01,-1.362976282835006714e-01
7.248000000000000000e+03,1.100000023841857910e+00,3.599999904632568359e+00,6.682508990607516353e-10,-1.153930943853520574e-11,1.390412092208862305e+00,1.761212795972824097e-01,-1.218646094202995300e-01
7.249000000000000000e+03,1.200000047683715820e+00,3.599999904632568359e+00,7.324295059341068281e-10,2.566425370831293407e-11,1.394966483116149902e+00,1.573897302150726318e-01,-1.083168610930442810e-01
7.250000000000000000e+03,1.299999952316284180e+00,3.599999904632568359e+00,7.970502036158677583e-10,6.898581705883088944e-11,1.398937463760375977e+00,1.396720260381698608e-01,-9.568144381046295166e-02
7.251000000000000000e+03,1.399999976158142090e+00,3.599999904632568359e+00,8.620708036310986699e-10,1.183607239996220528e-10,1.402340650558471680e+00,1.230279952287673950e-01,-8.397680521011352539e-02
7.252000000000000000e+03,1.500000000000000000e+00,3.599999904632568359e+00,9.274497836386785821e-10,1.737212595998016695e-10,1.405205607414245605e+00,1.074888482689857483e-01,-7.320977747440338135e-02
7.253000000000000000e+03,1.600000023841857910e+00,3.599999904632568359e+00,9.931475641877796079e-10,2.349977434867867032e-10,1.407570958137512207e+00,9.306239336729049683e-02,-6.337510794401168823e-02
7.254000000000000000e+03,1.700000047683715820e+00,3.599999904632568359e+00,1.059126564229018186e-09,3.021193850649694923e-10,1.409480452537536621e+00,7.973803579807281494e-02,-5.445587262511253357e-02
7.255000000000000000e+03,1.799999952316284180e+00,3.599999904632568359e+00,1.125351811737118624e-09,3.750149912828959486e-10,1.410979390144348145e+00,6.749098747968673706e-02,-4.642481729388237000e-02
7.256000000000000000e+03,1.899999976158142090e+00,3.599999904632568359e+00,1.191791221266669254e-09,4.536143127786829155e-10,1.412113070487976074e+00,5.628572404384613037e-02,-3.924628347158432007e-02
7.257000000000000000e+03,2.000000000000000000e+00,3.599999904632568359e+00,1.258415149862912585e-09,5.378480438800181673e-10,1.412925004959106445e+00,4.607902467250823975e-02,-3.287780284881591797e-02
7.258000000000000000e+03,2.099999904632568359e+00,3.599999904632568359e+00,1.325196508084047764e-09,6.276488773160338042e-10,1.413455843925476074e+00,3.682223707437515259e-02,-2.727217599749565125e-02
7.259000000000000000e+03,2.200000047683715820e+00,3.599999904632568359e+00,1.392111093068137961e-09,7.229521425955454106e-10,1.413743615150451660e+00,2.846312336623668671e-02,-2.237909846007823944e-02
7.260000000000000000e+03,2.299999952316284180e+00,3.599999904632568359e+00,1.459136700354690674e-09,8.236952786511153590e-10,1.413822889328002930e+00,2.094749733805656433e-02,-1.814628392457962036e-02
7.261000000000000000e+03,2.400000095367431641e+00,3.599999904632568359e+00,1.526253790018472500e-09,9.298196101958922100e-10,1.413724899291992188e+00,1.422021817415952682e-02,-1.452128682285547256e-02
7.262000000000000000e+03,2.500000000000000000e+00,3.599999904632568359e+00,1.593444709513391899e-09,1.041268515855620080e-09,1.413477778434753418e+00,8.226292207837104797e-03,-1.145174168050289154e-02
7.263000000000000000e+03,2.599999904632568359e+00,3.599999904632568359e+00,1.660693915717104119e-09,1.157989704125839125e-09,1.413107037544250488e+00,2.911458257585763931e-03,-8.886883035302162170e-03
7.264000000000000000e+03,2.700000047683715820e+00,3.599999904632568359e+00,1.727987641864103807e-09,1.279934047637709682e-09,1.412634849548339844e+00,-1.777192112058401108e-03,-6.777641363441944122e-03
7.265000000000000000e+03,2.799999952316284180e+00,3.599999904632568359e+00,1.795313786523422550e-09,1.407054917024197493e-09,1.412081360816955566e+00,-5.890762899070978165e-03,-5.077098496258258820e-03
7.266000000000000000e+03,2.900000095367431641e+00,3.599999904632568359e+00,1.862661802576326409e-09,1.539310234832669266e-09,1.411464095115661621e+00,-9.478322230279445648e-03,-3.741278778761625290e-03
7.267000000000000000e+03,3.000000000000000000e+00,3.599999904632568359e+00,1.930022364149408531e-09,1.676659588945028645e-09,1.410798430442810059e+00,-1.258658710867166519e-02,-2.728597028180956841e-03
7.268000000000000000e+03,3.099999904632568359e+00,3.599999904632568359e+00,1.997387810703799005e-09,1.819067008135277774e-09,1.410097956657409668e+00,-1.525984331965446472e-02,-2.000712323933839798e-03
7.269000000000000000e+03,3.200000047683715820e+00,3.599999904632568359e+00,2.064751702945955003e-09,1.966499185712677900e-09,1.409374475479125977e+00,-1.753981225192546844e-02,-1.522054313682019711e-03
7.270000000000000000e+03,3.299999952316284180e+00,3.599999904632568359e+00,2.132107601582333700e-09,2.118924591343329666e-09,1.408638000488281250e+00,-1.946560107171535492e-02,-1.259802142158150673e-03
7.271000000000000000e+03,3.400000095367431641e+00,3.599999904632568359e+00,2.199451509810046446e-09,2.276316024563129758e-09,1.407897353172302246e+00,-2.107372693717479706e-02,-1.184311928227543831e-03
7.272000000000000000e+03,3.500000000000000000e+00,3.599999904632568359e+00,2.266778986736994739e-09,2.438647284108697022e-09,1.407159924507141113e+00,-2.239811234176158905e-02,-1.268263556994497776e-03
7.273000000000000000e+03,3.599999904632568359e+00,3.599999904632568359e+00,2.334087145783314554e-09,2.605895277341119254e-09,1.406432151794433594e+00,-2.347016520798206329e-02,-1.487286295741796494e-03
7.274000000000000000e+03,3.700000047683715820e+00,3.599999904632568359e+00,2.401373766502956641e-09,2.778039576156743351e-09,1.405718922615051270e+00,-2.431883662939071655e-02,-1.819317811168730259e-03
7.275000000000000000e+03,3.799999952316284180e+00,3.599999904632568359e+00,2.468636406405266825e-09,2.955060418585730986e-09,1.405024886131286621e+00,-2.497071214020252228e-02,-2.244452247396111488e-03
7.276000000000000000e+03,3.900000095367431641e+00,3.599999904632568359e+00,2.535873955267220481e-09,3.136941595371922631e-09,1.404353141784667969e+00,-2.545011974871158600e-02,-2.745283767580986023e-03
7.277000000000000000e+03,4.000000000000000000e+00,3.599999904632568359e+00,2.603085302865792983e-09,3.323666897259158759e-09,1.403706789016723633e+00,-2.577923797070980072e-02,-3.306001657620072365e-03
7.278000000000000000e+03,4.099999904632568359e+00,3.599999904632568359e+00,2.670270005111774481e-09,3.515223001571143868e-09,1.403087496757507324e+00,-2.597820572555065155e-02,-3.912981599569320679e-03
7.279000000000000000e+03,4.199999809265136719e+00,3.599999904632568359e+00,2.737428062005164975e-09,3.711597917899212007e-09,1.402497053146362305e+00,-2.606525644659996033e-02,-4.554089158773422241e-03
7.280000000000000000e+03,4.300000190734863281e+00,3.599999904632568359e+00,2.804559251501359540e-09,3.912781654236141549e-09,1.401936292648315430e+00,-2.605682238936424255e-02,-5.218869540840387344e-03
7.281000000000000000e+03,4.400000095367431641e+00,3.599999904632568359e+00,2.871663795644963102e-09,4.118763108351686242e-09,1.401405930519104004e+00,-2.596767246723175049e-02,-5.897900089621543884e-03
7.282000000000000000e+03,4.500000000000000000e+00,3.599999904632568359e+00,2.938742360569790435e-09,4.329534508684673710e-09,1.400905966758728027e+00,-2.581101655960083008e-02,-6.583580281585454941e-03
7.283000000000000000e+03,4.599999904632568359e+00,3.599999904632568359e+00,3.005795390365051389e-09,4.545088305718536503e-09,1.400436401367187500e+00,-2.559863403439521790e-02,-7.269093766808509827e-03
7.284000000000000000e+03,4.699999809265136719e+00,3.599999904632568359e+00,3.072823995253770590e-09,4.765417838115126870e-09,1.399996757507324219e+00,-2.534097433090209961e-02,-7.948740385472774506e-03
7.285000000000000000e+03,4.800000190734863281e+00,3.599999904632568359e+00,3.139828841369762813e-09,4.990519553160766009e-09,1.399586558341979980e+00,-2.504727616906166077e-02,-8.617830462753772736e-03
7.286000000000000000e+03,4.900000095367431641e+00,3.599999904632568359e+00,3.206810816891447757e-09,5.220385457249676620e-09,1.399204969406127930e+00,-2.472566999495029449e-02,-9.272133000195026398e-03
7.287000000000000000e+03,5.000000000000000000e+00,3.599999904632568359e+00,3.273771032041850049e-09,5.455013329935809452e-09,1.398850917816162109e+00,-2.438326738774776459e-02,-9.908693842589855194e-03
7.288000000000000000e+03,5.099999904632568359e+00,3.599999904632568359e+00,3.340710597043994312e-09,5.694398730327066005e-09,1.398523569107055664e+00,-2.402625977993011475e-02,-1.052484568208456039e-02
7.289000000000000000e+03,5.199999809265136719e+00,3.599999904632568359e+00,3.407630622120905173e-09,5.938539437977397029e-09,1.398221492767333984e+00,-2.366000600159168243e-02,-1.111857686191797256e-02
7.290000000000000000e+03,5.300000190734863281e+00,3.599999904632568359e+00,3.474532217495607256e-09,6.187434120619172973e-09,1.397943854331970215e+00,-2.328911051154136658e-02,-1.168846245855093002e-02
7.291000000000000000e+03,5.400000095367431641e+00,3.599999904632568359e+00,3.541416271346520261e-09,6.441077893271085486e-09,1.397689104080200195e+00,-2.291750721633434296e-02,-1.223314832895994186e-02
7.292000000000000000e+03,5.500000000000000000e+00,3.599999904632568359e+00,3.608283893896668815e-09,6.699470311843924719e-09,1.397456169128417969e+00,-2.254851534962654114e-02,-1.275220513343811035e-02
7.293000000000000000e+03,5.599999904632568359e+00,3.599999904632568359e+00,3.675136195369077541e-09,6.962610488159270972e-09,1.397243738174438477e+00,-2.218491956591606140e-02,-1.324516627937555313e-02
7.294000000000000000e+03,5.699999809265136719e+00,3.599999904632568359e+00,3.741974285986771065e-09,7.230497089949494693e-09,1.397050380706787109e+00,-2.182901650667190552e-02,-1.371193397790193558e-02
7.295000000000000000e+03,5.800000190734863281e+00,3.599999904632568359e+00,3.808799053928169087e-09,7.503130561303805734e-09,1.396875143051147461e+00,-2.148267999291419983e-02,-1.415273081511259079e-02
7.296000000000000000e+03,5.900000095367431641e+00,3.599999904632568359e+00,3.875611387371691308e-09,7.780507793597735144e-09,1.396716713905334473e+00,-2.114740945398807526e-02,-1.456761825829744339e-02
7.297000000000000000e+03,6.000000000000000000e+00,3.599999904632568359e+00,3.942412618584967277e-09,8.062630563188122323e-09,1.396573781967163086e+00,-2.082436904311180115e-02,-1.495736464858055115e-02
7.298000000000000000e+03,6.099999904632568359e+00,3.599999904632568359e+00,4.009202747567996994e-09,8.349497981896547572e-09,1.396445393562316895e+00,-2.051443420350551605e-02,-1.532251667231321335e-02
7.299000000000000000e+03,6.199999809265136719e+00,3.599999904632568359e+00,4.075983550677619860e-09,8.641109161544591188e-09,1.396330237388610840e+00,-2.021822892129421234e-02,-1.566381752490997314e-02
7.300000000000000000e+03,6.300000190734863281e+00,3.599999904632568359e+00,4.142755472003045725e-09,8.937467654845931975e-09,1.396227478981018066e+00,-1.993616297841072083e-02,-1.598218269646167755e-02
7.301000000000000000e+03,6.400000095367431641e+00,3.599999904632568359e+00,4.209518955633484438e-09,9.238569020908471430e-09,1.396136045455932617e+00,-1.966845616698265076e-02,-1.627823337912559509e-02
7.302000000000000000e+03,6.500000000000000000e+00,3.599999904632568359e+00,4.276275333836565551e-09,9.544415924267468654e-09,1.396054983139038086e+00,-1.941516995429992676e-02,-1.655318215489387512e-02
7.303000000000000000e+03,6.599999904632568359e+00,3.599999904632568359e+00,4.343024606612289062e-09,9.855009253101343347e-09,1.395983338356018066e+00,-1.917622983455657959e-02,-1.680791191756725311e-02
7.304000000000000000e+03,6.699999809265136719e+00,3.599999904632568359e+00,4.409767662139074673e-09,1.017034811923167581e-08,1.395920395851135254e+00,-1.895144768059253693e-02,-1.704342104494571686e-02
7.305000000000000000e+03,6.800000190734863281e+00,3.599999904632568359e+00,4.476505388595342083e-09,1.049043429901530544e-08,1.395865321159362793e+00,-1.874054409563541412e-02,-1.726079359650611877e-02
7.306000000000000000e+03,6.900000095367431641e+00,3.599999904632568359e+00,4.543237785981091292e-09,1.081526690427381254e-08,1.395817399024963379e+00,-1.854316145181655884e-02,-1.746075786650180817e-02
7.307000000000000000e+03,7.000000000000000000e+00,3.599999904632568359e+00,4.609965298385532151e-09,1.114484682318561681e-08,1.395775794982910156e+00,-1.835888251662254333e-02,-1.764457486569881439e-02
7.308000000000000000e+03,7.099999904632568359e+00,3.599999904632568359e+00,4.676688813987084359e-09,1.147917494392913795e-08,1.395740151405334473e+00,-1.818724162876605988e-02,-1.781312748789787292e-02
7.309000000000000000e+03,7.199999809265136719e+00,3.599999904632568359e+00,4.743408776874957766e-09,1.181825215468279566e-08,1.395709633827209473e+00,-1.802773587405681610e-02,-1.796736754477024078e-02
7.310000000000000000e+03,7.300000190734863281e+00,3.599999904632568359e+00,4.810125631138362223e-09,1.216207934362500964e-08,1.395683884620666504e+00,-1.787983626127243042e-02,-1.810830458998680115e-02
7.311000000000000000e+03,7.400000095367431641e+00,3.599999904632568359e+00,4.876839376777297730e-09,1.251065473439894049e-08,1.395662307739257812e+00,-1.774299889802932739e-02,-1.823655888438224792e-02
7.312000000000000000e+03,7.500000000000000000e+00,3.599999904632568359e+00,4.943550013791764286e-09,1.286398099153984731e-08,1.395644426345825195e+00,-1.761666685342788696e-02,-1.835326291620731354e-02
7.313000000000000000e+03,7.599999904632568359e+00,3.599999904632568359e+00,5.010258430360181592e-09,1.322205811504773010e-08,1.395629763603210449e+00,-1.750027947127819061e-02,-1.845915056765079498e-02
7.314000000000000000e+03,7.699999809265136719e+00,3.599999904632568359e+00,5.076965070571759497e-09,1.358488610492258886e-08,1.395618200302124023e+00,-1.739328168332576752e-02,-1.855501160025596619e-02
7.315000000000000000e+03,7.800000190734863281e+00,3.599999904632568359e+00,5.143669934426498003e-09,1.395246762569968269e-08,1.395609021186828613e+00,-1.729512028396129608e-02,-1.864168047904968262e-02
7.316000000000000000e+03,7.900000095367431641e+00,3.599999904632568359e+00,5.210373021924397108e-09,1.432480001284375248e-08,1.395602226257324219e+00,-1.720525696873664856e-02,-1.871960051357746124e-02
7.317000000000000000e+03,8.000000000000000000e+00,3.599999904632568359e+00,5.277074333065456813e-09,1.470188504271163765e-08,1.395597338676452637e+00,-1.712316460907459259e-02,-1.878971233963966370e-02
7.318000000000000000e+03,8.100000381469726562e+00,3.599999904632568359e+00,5.343775200117306667e-09,1.508372449166017759e-08,1.395594239234924316e+00,-1.704832911491394043e-02,-1.885265856981277466e-02
7.319000000000000000e+03,8.199999809265136719e+00,3.599999904632568359e+00,5.410473846723107272e-09,1.547031480697569350e-08,1.395592451095581055e+00,-1.698025874793529510e-02,-1.890866458415985107e-02
7.320000000000000000e+03,8.300000190734863281e+00,3.599999904632568359e+00,5.477172937418117726e-09,1.586166398226396268e-08,1.395591974258422852e+00,-1.691847667098045349e-02,-1.895893551409244537e-02
7.321000000000000000e+03,8.399999618530273438e+00,3.599999904632568359e+00,5.543870251756288781e-09,1.625776135938394873e-08,1.395592689514160156e+00,-1.686253212392330170e-02,-1.900326274335384369e-02
7.322000000000000000e+03,8.500000000000000000e+00,3.599999904632568359e+00,5.610567122005249985e-09,1.665861937283352745e-08,1.395594120025634766e+00,-1.681198924779891968e-02,-1.904287002980709076e-02
7.323000000000000000e+03,8.600000381469726562e+00,3.599999904632568359e+00,5.677263992254211189e-09,1.706423091718534124e-08,1.395596385002136230e+00,-1.676643826067447662e-02,-1.907766610383987427e-02
7.324000000000000000e+03,8.699999809265136719e+00,3.599999904632568359e+00,5.743959530235542843e-09,1.747459599243939010e-08,1.395599246025085449e+00,-1.672548800706863403e-02,-1.910807564854621887e-02
7.325000000000000000e+03,8.800000190734863281e+00,3.599999904632568359e+00,5.810655512306084347e-09,1.788971992766619223e-08,1.395602583885192871e+00,-1.668876782059669495e-02,-1.913504116237163544e-02
7.326000000000000000e+03,8.899999618530273438e+00,3.599999904632568359e+00,5.877350606198206151e-09,1.830959561743839004e-08,1.395606398582458496e+00,-1.665593497455120087e-02,-1.915819756686687469e-02
7.327000000000000000e+03,9.000000000000000000e+00,3.599999904632568359e+00,5.944046144179537805e-09,1.873423016718334111e-08,1.395610332489013672e+00,-1.662665978074073792e-02,-1.917861588299274445e-02
7.328000000000000000e+03,9.100000381469726562e+00,3.599999904632568359e+00,6.010741238071659609e-09,1.916362357690104545e-08,1.395614624023437500e+00,-1.660064049065113068e-02,-1.919605582952499390e-02
7.329000000000000000e+03,9.199999809265136719e+00,3.599999904632568359e+00,6.077435887874571563e-09,1.959776874116414547e-08,1.395619034767150879e+00,-1.657758653163909912e-02,-1.921080611646175385e-02
7.330000000000000000e+03,9.300000190734863281e+00,3.599999904632568359e+00,6.144130981766693367e-09,2.003667631811367755e-08,1.395623564720153809e+00,-1.655723527073860168e-02,-1.922367885708808899e-02
7.331000000000000000e+03,9.399999618530273438e+00,3.599999904632568359e+00,6.210825187480395471e-09,2.048033564960860531e-08,1.395628094673156738e+00,-1.653933897614479065e-02,-1.923418231308460236e-02
7.332000000000000000e+03,9.500000000000000000e+00,3.599999904632568359e+00,6.277520281372517275e-09,2.092875739378996514e-08,1.395632624626159668e+00,-1.652366667985916138e-02,-1.924327015876770020e-02
7.333000000000000000e+03,9.600000381469726562e+00,3.599999904632568359e+00,6.344215375264639079e-09,2.138193622158723883e-08,1.395637035369873047e+00,-1.651000417768955231e-02,-1.925059407949447632e-02
7.334000000000000000e+03,9.699999809265136719e+00,3.599999904632568359e+00,6.410909580978341182e-09,2.183986858028674760e-08,1.395641446113586426e+00,-1.649815589189529419e-02,-1.925633847713470459e-02
7.335000000000000000e+03,9.800000190734863281e+00,3.599999904632568359e+00,6.477604674870462986e-09,2.230256157531584904e-08,1.395645737648010254e+00,-1.648793928325176239e-02,-1.926121860742568970e-02
7.336000000000000000e+03,9.899999618530273438e+00,3.599999904632568359e+00,6.544299324673374940e-09,2.277000987760402495e-08,1.395649909973144531e+00,-1.647918857634067535e-02,-1.926465332508087158e-02
7.337000000000000000e+03,1.000000000000000000e+01,3.599999904632568359e+00,6.610994862654706594e-09,2.324222059257863293e-08,1.395653963088989258e+00,-1.647174917161464691e-02,-1.926751248538494110e-02
7.338000000000000000e+03,1.010000038146972656e+01,3.599999904632568359e+00,6.677689956546828398e-09,2.371919016752599418e-08,1.395657896995544434e+00,-1.646547950804233551e-02,-1.926937326788902283e-02
7.339000000000000000e+03,1.019999980926513672e+01,3.599999904632568359e+00,6.744385050438950202e-09,2.420091327337559051e-08,1.395661592483520508e+00,-1.646025106310844421e-02,-1.927033253014087677e-02
7.340000000000000000e+03,1.030000019073486328e+01,3.599999904632568359e+00,6.811080588420281856e-09,2.468739879191161890e-08,1.395665168762207031e+00,-1.645594835281372070e-02,-1.927106827497482300e-02
7.341000000000000000e+03,1.039999961853027344e+01,3.599999904632568359e+00,6.877775682312403660e-09,2.517863784134988236e-08,1.395668506622314453e+00,-1.645246148109436035e-02,-1.927090249955654144e-02
7.342000000000000000e+03,1.050000000000000000e+01,3.599999904632568359e+00,6.944471220293735314e-09,2.567464107983141730e-08,1.395671725273132324e+00,-1.644969359040260315e-02,-1.927068270742893219e-02
7.343000000000000000e+03,1.060000038146972656e+01,3.599999904632568359e+00,7.011167202364276818e-09,2.617540317828570551e-08,1.395674824714660645e+00,-1.644755713641643524e-02,-1.926990412175655365e-02
7.344000000000000000e+03,1.069999980926513672e+01,3.599999904632568359e+00,7.077862740345608472e-09,2.668091703128538938e-08,1.395677685737609863e+00,-1.644597202539443970e-02,-1.926863193511962891e-02
7.345000000000000000e+03,1.080000019073486328e+01,3.599999904632568359e+00,7.144558722416149976e-09,2.719119684968518413e-08,1.395680427551269531e+00,-1.644486747682094574e-02,-1.926749572157859802e-02
7.346000000000000000e+03,1.089999961853027344e+01,3.599999904632568359e+00,7.211254260397481630e-09,2.770623019898721395e-08,1.395682930946350098e+00,-1.644417643547058105e-02,-1.926577836275100708e-02
7.347000000000000000e+03,1.100000000000000000e+01,3.599999904632568359e+00,7.277950686557232984e-09,2.822602596097567584e-08,1.395685315132141113e+00,-1.644383929669857025e-02,-1.926429010927677155e-02
7.348000000000000000e+03,1.110000038146972656e+01,3.599999904632568359e+00,7.344647112716984338e-09,2.875058235929373041e-08,1.395687580108642578e+00,-1.644380763173103333e-02,-1.926249451935291290e-02
7.349000000000000000e+03,1.119999980926513672e+01,3.599999904632568359e+00,7.411343094787525843e-09,2.927989051215718064e-08,1.395689606666564941e+00,-1.644403114914894104e-02,-1.926042512059211731e-02
7.350000000000000000e+03,1.130000019073486328e+01,3.599999904632568359e+00,7.478039520947277197e-09,2.981396463042074174e-08,1.395691514015197754e+00,-1.644447073340415955e-02,-1.925868354737758636e-02
7.351000000000000000e+03,1.139999961853027344e+01,3.599999904632568359e+00,7.544736391196238401e-09,3.035279050322969852e-08,1.395693302154541016e+00,-1.644508726894855499e-02,-1.925652846693992615e-02
7.352000000000000000e+03,1.150000000000000000e+01,3.599999904632568359e+00,7.611433261445199605e-09,3.089638411779560556e-08,1.395694971084594727e+00,-1.644584909081459045e-02,-1.925474964082241058e-02
7.353000000000000000e+03,1.160000038146972656e+01,3.599999904632568359e+00,7.678130131694160809e-09,3.144473481597742648e-08,1.395696520805358887e+00,-1.644672825932502747e-02,-1.925278827548027039e-02
7.354000000000000000e+03,1.169999980926513672e+01,3.599999904632568359e+00,7.744826113764702313e-09,3.199783904506148247e-08,1.395697951316833496e+00,-1.644769869744777679e-02,-1.925065927207469940e-02
7.355000000000000000e+03,1.180000019073486328e+01,3.599999904632568359e+00,7.811522984013663518e-09,3.255570746318880992e-08,1.395699262619018555e+00,-1.644873619079589844e-02,-1.924894936382770538e-02
7.356000000000000000e+03,1.189999961853027344e+01,3.599999904632568359e+00,7.878219854262624722e-09,3.311832941221837245e-08,1.395700454711914062e+00,-1.644982397556304932e-02,-1.924690417945384979e-02
7.357000000000000000e+03,1.200000000000000000e+01,3.599999904632568359e+00,7.944916724511585926e-09,3.368571555029120645e-08,1.395701527595520020e+00,-1.645094528794288635e-02,-1.924529671669006348e-02
7.358000000000000000e+03,1.210000038146972656e+01,3.599999904632568359e+00,8.011614482938966830e-09,3.425786232469363313e-08,1.395702600479125977e+00,-1.645208522677421570e-02,-1.924356073141098022e-02
7.359000000000000000e+03,1.219999980926513672e+01,3.599999904632568359e+00,8.078311353187928034e-09,3.483476262999829487e-08,1.395703434944152832e+00,-1.645322889089584351e-02,-1.924169808626174927e-02
7.360000000000000000e+03,1.230000019073486328e+01,3.599999904632568359e+00,8.145008223436889239e-09,3.541642712434622808e-08,1.395704269409179688e+00,-1.645437069237232208e-02,-1.924029178917407990e-02
7.361000000000000000e+03,1.239999961853027344e+01,3.599999904632568359e+00,8.211705093685850443e-09,3.600284159688271757e-08,1.395705103874206543e+00,-1.645549759268760681e-02,-1.923857256770133972e-02
7.362000000000000000e+03,1.250000000000000000e+01,3.599999904632568359e+00,8.278402852113231347e-09,3.659402381117615732e-08,1.395705699920654297e+00,-1.645660400390625000e-02,-1.923731155693531036e-02
7.363000000000000000e+03,1.260000038146972656e+01,3.599999904632568359e+00,8.345100610540612251e-09,3.718996666179918975e-08,1.395706415176391602e+00,-1.645768247544765472e-02,-1.923593506217002869e-02
7.364000000000000000e+03,1.269999980926513672e+01,3.599999904632568359e+00,8.411797480789573456e-09,3.779066304332445725e-08,1.395706892013549805e+00,-1.645873114466667175e-02,-1.923444122076034546e-02
7.365000000000000000e+03,1.280000019073486328e+01,3.599999904632568359e+00,8.478495239216954360e-09,3.839612006117931742e-08,1.395707488059997559e+00,-1.645974256098270416e-02,-1.923340372741222382e-02
7.366000000000000000e+03,1.289999961853027344e+01,3.599999904632568359e+00,8.545192109465915564e-09,3.900633416265009146e-08,1.395707964897155762e+00,-1.646071672439575195e-02,-1.923205703496932983e-02
7.367000000000000000e+03,1.300000000000000000e+01,3.599999904632568359e+00,8.611889867893296469e-09,3.962131245316413697e-08,1.395708322525024414e+00,-1.646164804697036743e-02,-1.923116482794284821e-02
7.368000000000000000e+03,1.310000038146972656e+01,3.599999904632568359e+00,8.678587626320677373e-09,4.024105138000777515e-08,1.395708680152893066e+00,-1.646253839135169983e-02,-1.923014968633651733e-02
7.369000000000000000e+03,1.319999980926513672e+01,3.599999904632568359e+00,8.745284496569638577e-09,4.086554028503996960e-08,1.395709037780761719e+00,-1.646338403224945068e-02,-1.922900974750518799e-02
7.370000000000000000e+03,1.330000019073486328e+01,3.599999904632568359e+00,8.811982254997019481e-09,4.149479693182911433e-08,1.395709395408630371e+00,-1.646418496966362000e-02,-1.922831870615482330e-02
7.371000000000000000e+03,1.339999961853027344e+01,3.599999904632568359e+00,8.878680013424400386e-09,4.212880355680681532e-08,1.395709633827209473e+00,-1.646494120359420776e-02,-1.922730356454849243e-02
7.372000000000000000e+03,1.350000000000000000e+01,3.599999904632568359e+00,8.945377771851781290e-09,4.276757792354146659e-08,1.395709872245788574e+00,-1.646565087139606476e-02,-1.922673359513282776e-02
7.373000000000000000e+03,1.360000038146972656e+01,3.599999904632568359e+00,9.012075530279162194e-09,4.341110937389203173e-08,1.395710110664367676e+00,-1.646631769835948944e-02,-1.922602578997612000e-02
7.374000000000000000e+03,1.369999980926513672e+01,3.599999904632568359e+00,9.078772400528123399e-09,4.405939790785851073e-08,1.395710229873657227e+00,-1.646693795919418335e-02,-1.922517828643321991e-02
7.375000000000000000e+03,1.380000019073486328e+01,3.599999904632568359e+00,9.145471047133924003e-09,4.471244707815458241e-08,1.395710468292236328e+00,-1.646751351654529572e-02,-1.922476477921009064e-02
7.376000000000000000e+03,1.389999961853027344e+01,3.599999904632568359e+00,9.212167917382885207e-09,4.537025333206656796e-08,1.395710587501525879e+00,-1.646804437041282654e-02,-1.922401413321495056e-02
7.377000000000000000e+03,1.400000000000000000e+01,3.599999904632568359e+00,9.278865675810266112e-09,4.603282022230814619e-08,1.395710706710815430e+00,-1.646853052079677582e-02,-1.922369189560413361e-02
7.378000000000000000e+03,1.410000038146972656e+01,3.599999904632568359e+00,9.345564322416066716e-09,4.670015130159299588e-08,1.395710825920104980e+00,-1.646897383034229279e-02,-1.922321692109107971e-02
7.379000000000000000e+03,1.419999980926513672e+01,3.599999904632568359e+00,9.412261192665027920e-09,4.737223235906640184e-08,1.395710945129394531e+00,-1.646936871111392975e-02,-1.922258734703063965e-02
7.380000000000000000e+03,1.430000019073486328e+01,3.599999904632568359e+00,9.478958951092408824e-09,4.804907760558307928e-08,1.395711064338684082e+00,-1.646971888840198517e-02,-1.922237686812877655e-02
7.381000000000000000e+03,1.439999961853027344e+01,3.599999904632568359e+00,9.545656709519789729e-09,4.873067638300199178e-08,1.395711064338684082e+00,-1.647002249956130981e-02,-1.922181434929370880e-02
7.382000000000000000e+03,1.450000000000000000e+01,3.599999904632568359e+00,9.612354467947170633e-09,4.941704290217785456e-08,1.395711183547973633e+00,-1.647027581930160522e-02,-1.922166347503662109e-02
7.383000000000000000e+03,1.460000038146972656e+01,3.599999904632568359e+00,9.679052226374551537e-09,5.010816650496963121e-08,1.395711183547973633e+00,-1.647047884762287140e-02,-1.922134682536125183e-02
7.384000000000000000e+03,1.469999980926513672e+01,3.599999904632568359e+00,9.745749984801932442e-09,5.080404363866364292e-08,1.395711183547973633e+00,-1.647062599658966064e-02,-1.922086067497730255e-02
7.385000000000000000e+03,1.480000019073486328e+01,3.599999904632568359e+00,9.812447743229313346e-09,5.150468496140092611e-08,1.395711183547973633e+00,-1.647071726620197296e-02,-1.922077871859073639e-02
7.386000000000000000e+03,1.489999961853027344e+01,3.599999904632568359e+00,9.879145501656694250e-09,5.221007981504044437e-08,1.395711183547973633e+00,-1.647074334323406219e-02,-1.922033168375492096e-02
7.387000000000000000e+03,1.500000000000000000e+01,3.599999904632568359e+00,9.945843260084075155e-09,5.292024241043691291e-08,1.395711183547973633e+00,-1.647069863975048065e-02,-1.922028139233589172e-02
7.388000000000000000e+03,1.510000038146972656e+01,3.599999904632568359e+00,1.001254101851145606e-08,5.363516208944929531e-08,1.395711183547973633e+00,-1.647057943046092987e-02,-1.922005228698253632e-02
7.389000000000000000e+03,1.519999980926513672e+01,3.599999904632568359e+00,1.007923877693883696e-08,5.435483174665023398e-08,1.395711064338684082e+00,-1.647037453949451447e-02,-1.921963877975940704e-02
7.390000000000000000e+03,1.530000019073486328e+01,3.599999904632568359e+00,1.014593653536621787e-08,5.507926914560812293e-08,1.395710945129394531e+00,-1.647007465362548828e-02,-1.921961642801761627e-02
7.391000000000000000e+03,1.539999961853027344e+01,3.599999904632568359e+00,1.021263340561517907e-08,5.580846007546824694e-08,1.395710706710815430e+00,-1.646966673433780670e-02,-1.921921223402023315e-02
7.392000000000000000e+03,1.550000000000000000e+01,3.599999904632568359e+00,1.027933205222097968e-08,5.654241519437164243e-08,1.395710468292236328e+00,-1.646913774311542511e-02,-1.921919360756874084e-02
7.393000000000000000e+03,1.560000038146972656e+01,3.599999904632568359e+00,1.034602981064836058e-08,5.728113094960463059e-08,1.395710110664367676e+00,-1.646847091615200043e-02,-1.921898126602172852e-02
7.394000000000000000e+03,1.569999980926513672e+01,3.599999904632568359e+00,1.041272668089732178e-08,5.802460023573985382e-08,1.395709753036499023e+00,-1.646764576435089111e-02,-1.921857148408889771e-02
7.395000000000000000e+03,1.580000019073486328e+01,3.599999904632568359e+00,1.047942443932470269e-08,5.877283371091834852e-08,1.395709276199340820e+00,-1.646664366126060486e-02,-1.921853981912136078e-02
7.396000000000000000e+03,1.589999961853027344e+01,3.599999904632568359e+00,1.054612219775208359e-08,5.952581716428539949e-08,1.395708560943603516e+00,-1.646544039249420166e-02,-1.921811327338218689e-02
7.397000000000000000e+03,1.600000000000000000e+01,3.599999904632568359e+00,1.061281995617946450e-08,6.028356835940940073e-08,1.395707845687866211e+00,-1.646400615572929382e-02,-1.921805739402770996e-02
7.398000000000000000e+03,1.610000038146972656e+01,3.599999904632568359e+00,1.067951682642842570e-08,6.104608019086299464e-08,1.395706892013549805e+00,-1.646230928599834442e-02,-1.921779662370681763e-02
7.399000000000000000e+03,1.620000076293945312e+01,3.599999904632568359e+00,1.074621458485580661e-08,6.181335265864618123e-08,1.395705699920654297e+00,-1.646031998097896576e-02,-1.921752095222473145e-02
7.400000000000000000e+03,1.629999923706054688e+01,3.599999904632568359e+00,1.081291056692634811e-08,6.258536444647688768e-08,1.395704269409179688e+00,-1.645799539983272552e-02,-1.921684481203556061e-02
7.401000000000000000e+03,1.639999961853027344e+01,3.599999904632568359e+00,1.087960832535372901e-08,6.336215108149190200e-08,1.395702481269836426e+00,-1.645529456436634064e-02,-1.921692118048667908e-02
7.402000000000000000e+03,1.650000000000000000e+01,3.599999904632568359e+00,1.094630519560269022e-08,6.414369835283650900e-08,1.395700335502624512e+00,-1.645217090845108032e-02,-1.921659708023071289e-02
7.403000000000000000e+03,1.660000038146972656e+01,3.599999904632568359e+00,1.101300295403007112e-08,6.493000626051070867e-08,1.395697832107543945e+00,-1.644857600331306458e-02,-1.921626366674900055e-02
7.404000000000000000e+03,1.670000076293945312e+01,3.599999904632568359e+00,1.107969982427903233e-08,6.572107480451450101e-08,1.395694851875305176e+00,-1.644445583224296570e-02,-1.921592466533184052e-02
7.405000000000000000e+03,1.679999923706054688e+01,3.599999904632568359e+00,1.114639491817115413e-08,6.651688266856581322e-08,1.395691275596618652e+00,-1.643975451588630676e-02,-1.921520382165908813e-02
7.406000000000000000e+03,1.689999961853027344e+01,3.599999904632568359e+00,1.121309090024169564e-08,6.731746537980143330e-08,1.395687103271484375e+00,-1.643441058695316315e-02,-1.921526901423931122e-02
7.407000000000000000e+03,1.700000000000000000e+01,3.599999904632568359e+00,1.127978688231223714e-08,6.812280872736664605e-08,1.395682096481323242e+00,-1.642836816608905792e-02,-1.921498402953147888e-02
7.408000000000000000e+03,1.710000038146972656e+01,3.599999904632568359e+00,1.134648286438277864e-08,6.893290560583409388e-08,1.395676136016845703e+00,-1.642156764864921570e-02,-1.921475864946842194e-02
7.409000000000000000e+03,1.720000076293945312e+01,3.599999904632568359e+00,1.141317795827490045e-08,6.974777022605849197e-08,1.395669221878051758e+00,-1.641395315527915955e-02,-1.921462640166282654e-02
7.410000000000000000e+03,1.729999923706054688e+01,3.599999904632568359e+00,1.147987127581018285e-08,7.056737416633040993e-08,1.395661115646362305e+00,-1.640547625720500946e-02,-1.921424828469753265e-02
7.411000000000000000e+03,1.739999961853027344e+01,3.599999904632568359e+00,1.154656548152388496e-08,7.139175295378663577e-08,1.395651578903198242e+00,-1.639609783887863159e-02,-1.921483501791954041e-02
7.412000000000000000e+03,1.750000000000000000e+01,3.599999904632568359e+00,1.161325879905916736e-08,7.222088527214509668e-08,1.395640611648559570e+00,-1.638579927384853363e-02,-1.921530999243259430e-02
7.413000000000000000e+03,1.760000038146972656e+01,3.599999904632568359e+00,1.167995122841603006e-08,7.305478533226050786e-08,1.395627856254577637e+00,-1.637457869946956635e-02,-1.921615563333034515e-02
7.414000000000000000e+03,1.770000076293945312e+01,3.599999904632568359e+00,1.174664365777289277e-08,7.389343892327815411e-08,1.395613074302673340e+00,-1.636247336864471436e-02,-1.921749301254749298e-02
7.415000000000000000e+03,1.779999923706054688e+01,3.599999904632568359e+00,1.181333253441607667e-08,7.473683893977067783e-08,1.395596146583557129e+00,-1.634956896305084229e-02,-1.921909116208553314e-02
7.416000000000000000e+03,1.789999961853027344e+01,3.599999904632568359e+00,1.188002229923768027e-08,7.558500669802015182e-08,1.395576834678649902e+00,-1.633600518107414246e-02,-1.922229304909706116e-02
7.417000000000000000e+03,1.800000000000000000e+01,3.599999904632568359e+00,1.194671117588086418e-08,7.643794219802657608e-08,1.395554661750793457e+00,-1.632200554013252258e-02,-1.922617293894290924e-02
7.418000000000000000e+03,1.810000038146972656e+01,3.599999904632568359e+00,1.201339738798878898e-08,7.729563122893523541e-08,1.395529747009277344e+00,-1.630789600312709808e-02,-1.923139020800590515e-02
7.419000000000000000e+03,1.820000076293945312e+01,3.599999904632568359e+00,1.208008360009671378e-08,7.815808089617348742e-08,1.395501494407653809e+00,-1.629413850605487823e-02,-1.923826336860656738e-02
7.420000000000000000e+03,1.829999923706054688e+01,3.599999904632568359e+00,1.214676537131254008e-08,7.902526277803190169e-08,1.395470142364501953e+00,-1.628135330975055695e-02,-1.924677565693855286e-02
7.421000000000000000e+03,1.839999961853027344e+01,3.599999904632568359e+00,1.221344803070678608e-08,7.989722661250198144e-08,1.395435214042663574e+00,-1.627036184072494507e-02,-1.925848051905632019e-02
7.422000000000000000e+03,1.850000000000000000e+01,3.599999904632568359e+00,1.228012802556577299e-08,8.077395108330165385e-08,1.395397067070007324e+00,-1.626222394406795502e-02,-1.927264221012592316e-02
7.423000000000000000e+03,1.860000038146972656e+01,3.599999904632568359e+00,1.234680624406792049e-08,8.165542908500356134e-08,1.395355701446533203e+00,-1.625827327370643616e-02,-1.929004676640033722e-02
7.424000000000000000e+03,1.870000076293945312e+01,3.599999904632568359e+00,1.241348179803480889e-08,8.254166772303506150e-08,1.395311474800109863e+00,-1.626013778150081635e-02,-1.931102387607097626e-02
7.425000000000000000e+03,1.879999923706054688e+01,3.599999904632568359e+00,1.248015468746643819e-08,8.343264568111408153e-08,1.395265221595764160e+00,-1.626975461840629578e-02,-1.933536678552627563e-02
7.426000000000000000e+03,1.889999961853027344e+01,3.599999904632568359e+00,1.254682668871964779e-08,8.432839138095005183e-08,1.395217895507812500e+00,-1.628932915627956390e-02,-1.936414279043674469e-02
7.427000000000000000e+03,1.900000000000000000e+01,3.599999904632568359e+00,1.261349691361601799e-08,8.522890482254297240e-08,1.395170927047729492e+00,-1.632124930620193481e-02,-1.939570158720016479e-02
7.428000000000000000e+03,1.910000038146972656e+01,3.599999904632568359e+00,1.268016536215554879e-08,8.613416468961077044e-08,1.395125985145568848e+00,-1.636792533099651337e-02,-1.942935585975646973e-02
7.429000000000000000e+03,1.920000076293945312e+01,3.599999904632568359e+00,1.274683292251665989e-08,8.704419229843551875e-08,1.395085334777832031e+00,-1.643152162432670593e-02,-1.946328952908515930e-02
7.430000000000000000e+03,1.929999923706054688e+01,3.599999904632568359e+00,1.281349870652093159e-08,8.795895212188042933e-08,1.395050883293151855e+00,-1.651359908282756805e-02,-1.949442364275455475e-02
7.431000000000000000e+03,1.939999961853027344e+01,3.599999904632568359e+00,1.288016626688204269e-08,8.887848679250964778e-08,1.395025014877319336e+00,-1.661469042301177979e-02,-1.952030695974826813e-02
7.432000000000000000e+03,1.950000000000000000e+01,3.599999904632568359e+00,1.294683471542157349e-08,8.980278920489581651e-08,1.395009040832519531e+00,-1.673385314643383026e-02,-1.953539438545703888e-02
7.433000000000000000e+03,1.960000038146972656e+01,3.599999904632568359e+00,1.301350405213952399e-08,9.073185225361157791e-08,1.395003557205200195e+00,-1.686832495033740997e-02,-1.953523792326450348e-02
7.434000000000000000e+03,1.970000076293945312e+01,3.599999904632568359e+00,1.308017694157115329e-08,9.166567593865693198e-08,1.395007848739624023e+00,-1.701341755688190460e-02,-1.951514929533004761e-02
7.435000000000000000e+03,1.979999923706054688e+01,3.599999904632568359e+00,1.314684983100278259e-08,9.260425315460452111e-08,1.395019292831420898e+00,-1.716271787881851196e-02,-1.947093382477760315e-02
7.436000000000000000e+03,1.989999961853027344e+01,3.599999904632568359e+00,1.321352804950493010e-08,9.354761232316377573e-08,1.395034074783325195e+00,-1.730869524180889130e-02,-1.940158940851688385e-02
7.437000000000000000e+03,2.000000000000000000e+01,3.599999904632568359e+00,1.328020804436391700e-08,9.449574633890733821e-08,1.395047187805175781e+00,-1.744369976222515106e-02,-1.930606923997402191e-02
7.438000000000000000e+03,0.000000000000000000e+00,3.700000047683715820e+00,4.582533805046724139e-38,2.743809655474279416e-39,1.244005441665649414e+00,3.732016384601593018e-01,-2.829779982566833496e-01
7.439000000000000000e+03,1.000000014901161194e-01,3.700000047683715820e+00,5.390690324680313950e-11,-3.503537043814120011e-11,1.238741874694824219e+00,3.556563556194305420e-01,-3.142240941524505615e-01
7.440000000000000000e+03,2.000000029802322388e-01,3.700000047683715820e+00,1.082842773780789969e-10,-6.318267437022129229e-11,1.243767023086547852e+00,3.394740819931030273e-01,-2.904180884361267090e-01
7.441000000000000000e+03,3.000000119209289551e-01,3.700000047683715820e+00,1.631746543440115715e-10,-8.459179190456467268e-11,1.249235033988952637e+00,3.217908442020416260e-01,-2.683349251747131348e-01
7.442000000000000000e+03,4.000000059604644775e-01,3.700000047683715820e+00,2.186145015015128479e-10,-9.937543843374641028e-11,1.255088329315185547e+00,3.028374016284942627e-01,-2.476153224706649780e-01
7.443000000000000000e+03,5.000000000000000000e-01,3.700000047683715820e+00,2.746292637745284537e-10,-1.076152708612276854e-10,1.261189341545104980e+00,2.829314470291137695e-01,-2.279681414365768433e-01
7.444000000000000000e+03,6.000000238418579102e-01,3.700000047683715820e+00,3.312304597269388751e-10,-1.093699089627087062e-10,1.267354965209960938e+00,2.624338269233703613e-01,-2.091889232397079468e-01
7.445000000000000000e+03,6.999999880790710449e-01,3.700000047683715820e+00,3.884152166566678943e-10,-1.046834077755853798e-10,1.273393154144287109e+00,2.417088001966476440e-01,-1.911606341600418091e-01
7.446000000000000000e+03,8.000000119209289551e-01,3.700000047683715820e+00,4.461677693967658342e-10,-9.359288344334970589e-11,1.279131054878234863e+00,2.210935205221176147e-01,-1.738406866788864136e-01
7.447000000000000000e+03,8.999999761581420898e-01,3.700000047683715820e+00,5.044615281057929224e-10,-7.613447372545323333e-11,1.284433245658874512e+00,2.008792012929916382e-01,-1.572407335042953491e-01
7.448000000000000000e+03,1.000000000000000000e+00,3.700000047683715820e+00,5.632623811813175507e-10,-5.234741806692255750e-11,1.289208650588989258e+00,1.813021898269653320e-01,-1.414052695035934448e-01
7.449000000000000000e+03,1.100000023841857910e+00,3.700000047683715820e+00,6.225313042840241451e-10,-2.227645325147964428e-11,1.293409705162048340e+00,1.625432372093200684e-01,-1.263924837112426758e-01
7.450000000000000000e+03,1.200000047683715820e+00,3.700000047683715820e+00,6.822267750727917246e-10,1.402729668531499385e-11,1.297024726867675781e+00,1.447316706180572510e-01,-1.122601330280303955e-01
7.451000000000000000e+03,1.299999952316284180e+00,3.700000047683715820e+00,7.423069381395919208e-10,5.650633433385010562e-11,1.300069928169250488e+00,1.279522627592086792e-01,-9.905599057674407959e-02
7.452000000000000000e+03,1.399999976158142090e+00,3.700000047683715820e+00,8.027309927882697593e-10,1.050977915806328156e-10,1.302580356597900391e+00,1.122529581189155579e-01,-8.681294322013854980e-02
7.453000000000000000e+03,1.500000000000000000e+00,3.700000047683715820e+00,8.634599146795096658e-10,1.597341842130006739e-10,1.304602503776550293e+00,9.765246510505676270e-02,-7.554692029953002930e-02
7.454000000000000000e+03,1.600000023841857910e+00,3.700000047683715820e+00,9.244572329869527039e-10,2.203448951076936169e-10,1.306187868118286133e+00,8.414686471223831177e-02,-6.525751203298568726e-02
7.455000000000000000e+03,1.700000047683715820e+00,3.700000047683715820e+00,9.856894189752551938e-10,2.868573711900523904e-10,1.307389378547668457e+00,7.171525806188583374e-02,-5.592953041195869446e-02
7.456000000000000000e+03,1.799999952316284180e+00,3.700000047683715820e+00,1.047125497422030094e-09,3.591981434514224247e-10,1.308258056640625000e+00,6.032438203692436218e-02,-4.753528907895088196e-02
7.457000000000000000e+03,1.899999976158142090e+00,3.700000047683715820e+00,1.108737990307417931e-09,4.372942563612980393e-10,1.308841824531555176e+00,4.993214458227157593e-02,-4.003726318478584290e-02
7.458000000000000000e+03,2.000000000000000000e+00,3.700000047683715820e+00,1.170501695568759715e-09,5.210735176675029834e-10,1.309184074401855469e+00,4.049057886004447937e-02,-3.339028730988502502e-02
7.459000000000000000e+03,2.099999904632568359e+00,3.700000047683715820e+00,1.232393964656353091e-09,6.104655669858516376e-10,1.309323549270629883e+00,3.194794431328773499e-02,-2.754401601850986481e-02
7.460000000000000000e+03,2.200000047683715820e+00,3.700000047683715820e+00,1.294395035600359734e-09,7.054026807118418674e-10,1.309294819831848145e+00,2.425036206841468811e-02,-2.244483679533004761e-02
7.461000000000000000e+03,2.299999952316284180e+00,3.700000047683715820e+00,1.356486589720873326e-09,8.058193001758695573e-10,1.309127688407897949e+00,1.734319888055324554e-02,-1.803716272115707397e-02
7.462000000000000000e+03,2.400000095367431641e+00,3.700000047683715820e+00,1.418653194917851579e-09,9.116536969777655486e-10,1.308848261833190918e+00,1.117185596376657486e-02,-1.426537707448005676e-02
7.463000000000000000e+03,2.500000000000000000e+00,3.700000047683715820e+00,1.480880529314276828e-09,1.022846585208014858e-09,1.308479189872741699e+00,5.682650953531265259e-03,-1.107411552220582962e-02
7.464000000000000000e+03,2.599999904632568359e+00,3.700000047683715820e+00,1.543156269434575734e-09,1.139342620248839921e-09,1.308039784431457520e+00,8.232296677306294441e-04,-8.409839123487472534e-03
7.465000000000000000e+03,2.700000047683715820e+00,3.700000047683715820e+00,1.605469868160014357e-09,1.261090232240746900e-09,1.307546496391296387e+00,-3.456977428868412971e-03,-6.220918148756027222e-03
7.466000000000000000e+03,2.799999952316284180e+00,3.700000047683715820e+00,1.667811555527975997e-09,1.388040127281442437e-09,1.307013750076293945e+00,-7.206439971923828125e-03,-4.458096809685230255e-03
7.467000000000000000e+03,2.900000095367431641e+00,3.700000047683715820e+00,1.730173337932683353e-09,1.520147896449941527e-09,1.306453585624694824e+00,-1.047139894217252731e-02,-3.075272543355822563e-03
7.468000000000000000e+03,3.000000000000000000e+00,3.700000047683715820e+00,1.792547776879871435e-09,1.657371129226703488e-09,1.305876135826110840e+00,-1.329565327614545822e-02,-2.028927439823746681e-03
7.469000000000000000e+03,3.099999904632568359e+00,3.700000047683715820e+00,1.854928877165207268e-09,1.799671300872773827e-09,1.305290102958679199e+00,-1.572053506970405579e-02,-1.278972253203392029e-03
7.470000000000000000e+03,3.200000047683715820e+00,3.700000047683715820e+00,1.917311864829684964e-09,1.947013661407481777e-09,1.304702877998352051e+00,-1.778485253453254700e-02,-7.882555364631116390e-04
7.471000000000000000e+03,3.299999952316284180e+00,3.700000047683715820e+00,1.979691521825088785e-09,2.099364460050878733e-09,1.304120421409606934e+00,-1.952486298978328705e-02,-5.225297063589096069e-04
7.472000000000000000e+03,3.400000095367431641e+00,3.700000047683715820e+00,2.042064961571554704e-09,2.256695275093534292e-09,1.303547739982604980e+00,-2.097434736788272858e-02,-4.508674319367855787e-04
7.473000000000000000e+03,3.500000000000000000e+00,3.700000047683715820e+00,2.104428631355403922e-09,2.418977684826018049e-09,1.302989006042480469e+00,-2.216461673378944397e-02,-5.447944276966154575e-04
7.474000000000000000e+03,3.599999904632568359e+00,3.700000047683715820e+00,2.166780310730587189e-09,2.586187708430998100e-09,1.302447557449340820e+00,-2.312460914254188538e-02,-7.789071532897651196e-04
7.475000000000000000e+03,3.700000047683715820e+00,3.700000047683715820e+00,2.229118001295660179e-09,2.758303363492586868e-09,1.301925897598266602e+00,-2.388096228241920471e-02,-1.130220480263233185e-03
7.476000000000000000e+03,3.799999952316284180e+00,3.700000047683715820e+00,2.291440148738388416e-09,2.935303999862526325e-09,1.301426053047180176e+00,-2.445810288190841675e-02,-1.578007126227021217e-03
7.477000000000000000e+03,3.900000095367431641e+00,3.700000047683715820e+00,2.353745642835747276e-09,3.117171853972422468e-09,1.300949454307556152e+00,-2.487836219370365143e-02,-2.104134531691670418e-03
7.478000000000000000e+03,4.000000000000000000e+00,3.700000047683715820e+00,2.416033373364712133e-09,3.303890050432300995e-09,1.300497055053710938e+00,-2.516207098960876465e-02,-2.692149719223380089e-03
7.479000000000000000e+03,4.099999904632568359e+00,3.700000047683715820e+00,2.478303118280678063e-09,3.495444378387446704e-09,1.300069570541381836e+00,-2.532768622040748596e-02,-3.327866084873676300e-03
7.480000000000000000e+03,4.199999809265136719e+00,3.700000047683715820e+00,2.540554877583645066e-09,3.691822181295378869e-09,1.299667239189147949e+00,-2.539189159870147705e-02,-3.998659085482358932e-03
7.481000000000000000e+03,4.300000190734863281e+00,3.700000047683715820e+00,2.602788429229008216e-09,3.893012578970456161e-09,1.299289941787719727e+00,-2.536972239613533020e-02,-4.693649709224700928e-03
7.482000000000000000e+03,4.400000095367431641e+00,3.700000047683715820e+00,2.665003551172162588e-09,4.099003358959407706e-09,1.298937559127807617e+00,-2.527467347681522369e-02,-5.403050221502780914e-03
7.483000000000000000e+03,4.500000000000000000e+00,3.700000047683715820e+00,2.727200909546922958e-09,4.309786749701061126e-09,1.298609495162963867e+00,-2.511881105601787567e-02,-6.118950899690389633e-03
7.484000000000000000e+03,4.599999904632568359e+00,3.700000047683715820e+00,2.789380726397894250e-09,4.525354313500429271e-09,1.298305153846740723e+00,-2.491288073360919952e-02,-6.834273692220449448e-03
7.485000000000000000e+03,4.699999809265136719e+00,3.700000047683715820e+00,2.851543889903496165e-09,4.745700277197784089e-09,1.298023819923400879e+00,-2.466641739010810852e-02,-7.543102372437715530e-03
7.486000000000000000e+03,4.800000190734863281e+00,3.700000047683715820e+00,2.913690622108333628e-09,4.970818867633397531e-09,1.297764658927917480e+00,-2.438783645629882812e-02,-8.240571245551109314e-03
7.487000000000000000e+03,4.900000095367431641e+00,3.700000047683715820e+00,2.975821811190826338e-09,5.200702535290702144e-09,1.297526597976684570e+00,-2.408453635871410370e-02,-8.922306820750236511e-03
7.488000000000000000e+03,5.000000000000000000e+00,3.700000047683715820e+00,3.037937679195579221e-09,5.435348615634438829e-09,1.297308683395385742e+00,-2.376298606395721436e-02,-9.585243649780750275e-03
7.489000000000000000e+03,5.099999904632568359e+00,3.700000047683715820e+00,3.100039558390221828e-09,5.674753111861718935e-09,1.297109842300415039e+00,-2.342881076037883759e-02,-1.022663246840238571e-02
7.490000000000000000e+03,5.199999809265136719e+00,3.700000047683715820e+00,3.162127892863964007e-09,5.918912471258863661e-09,1.296929001808166504e+00,-2.308687381446361542e-02,-1.084440108388662338e-02
7.491000000000000000e+03,5.300000190734863281e+00,3.700000047683715820e+00,3.224203570795225460e-09,6.167825805647453308e-09,1.296765208244323730e+00,-2.274134382605552673e-02,-1.143708825111389160e-02
7.492000000000000000e+03,5.400000095367431641e+00,3.700000047683715820e+00,3.286267258317820961e-09,6.421488230046179524e-09,1.296617150306701660e+00,-2.239577844738960266e-02,-1.200331933796405792e-02
7.493000000000000000e+03,5.500000000000000000e+00,3.700000047683715820e+00,3.348319399520960360e-09,6.679898856276622610e-09,1.296483993530273438e+00,-2.205317839980125427e-02,-1.254265848547220230e-02
7.494000000000000000e+03,5.599999904632568359e+00,3.700000047683715820e+00,3.410361326672273208e-09,6.943056796160362865e-09,1.296364665031433105e+00,-2.171604707837104797e-02,-1.305465027689933777e-02
7.495000000000000000e+03,5.699999809265136719e+00,3.700000047683715820e+00,3.472393261816364429e-09,7.210960717429770739e-09,1.296257972717285156e+00,-2.138645201921463013e-02,-1.353921275585889816e-02
7.496000000000000000e+03,5.800000190734863281e+00,3.700000047683715820e+00,3.534416537220863574e-09,7.483611064174056082e-09,1.296163082122802734e+00,-2.106606587767601013e-02,-1.399659831076860428e-02
7.497000000000000000e+03,5.900000095367431641e+00,3.700000047683715820e+00,3.596431152885770643e-09,7.761004283679540094e-09,1.296079039573669434e+00,-2.075622789561748505e-02,-1.442690193653106689e-02
7.498000000000000000e+03,6.000000000000000000e+00,3.700000047683715820e+00,3.658437774944900411e-09,8.043142152303062176e-09,1.296005010604858398e+00,-2.045796625316143036e-02,-1.483093388378620148e-02
7.499000000000000000e+03,6.099999904632568359e+00,3.700000047683715820e+00,3.720437291576672578e-09,8.330023781866202626e-09,1.295940041542053223e+00,-2.017205208539962769e-02,-1.520928647369146347e-02
7.500000000000000000e+03,6.199999809265136719e+00,3.700000047683715820e+00,3.782430368914901919e-09,8.621649172368961445e-09,1.295883297920227051e+00,-1.989902369678020477e-02,-1.556275133043527603e-02
7.501000000000000000e+03,6.300000190734863281e+00,3.700000047683715820e+00,3.844417673093403209e-09,8.918020100168178033e-09,1.295834183692932129e+00,-1.963922567665576935e-02,-1.589229330420494080e-02
7.502000000000000000e+03,6.400000095367431641e+00,3.700000047683715820e+00,3.906398760022966599e-09,9.219134788907012990e-09,1.295791864395141602e+00,-1.939283125102519989e-02,-1.619858667254447937e-02
7.503000000000000000e+03,6.500000000000000000e+00,3.700000047683715820e+00,3.968374961971221637e-09,9.524993238585466315e-09,1.295755743980407715e+00,-1.915987208485603333e-02,-1.648289524018764496e-02
7.504000000000000000e+03,6.599999904632568359e+00,3.700000047683715820e+00,4.030346723027378175e-09,9.835596337381957710e-09,1.295725226402282715e+00,-1.894025318324565887e-02,-1.674615778028964996e-02
7.505000000000000000e+03,6.699999809265136719e+00,3.700000047683715820e+00,4.092314487280646063e-09,1.015094586165332657e-08,1.295699596405029297e+00,-1.873378269374370575e-02,-1.698942109942436218e-02
7.506000000000000000e+03,6.800000190734863281e+00,3.700000047683715820e+00,4.154278698820235149e-09,1.047104181139957291e-08,1.295678377151489258e+00,-1.854018121957778931e-02,-1.721382327377796173e-02
7.507000000000000000e+03,6.900000095367431641e+00,3.700000047683715820e+00,4.216238913556935586e-09,1.079588329844227701e-08,1.295661211013793945e+00,-1.835910417139530182e-02,-1.742014102637767792e-02
7.508000000000000000e+03,7.000000000000000000e+00,3.700000047683715820e+00,4.278196019669167072e-09,1.112547121095985858e-08,1.295647501945495605e+00,-1.819015108048915863e-02,-1.760968379676342010e-02
7.509000000000000000e+03,7.099999904632568359e+00,3.700000047683715820e+00,4.340150905335349307e-09,1.145980732530915702e-08,1.295636892318725586e+00,-1.803287677466869354e-02,-1.778338104486465454e-02
7.510000000000000000e+03,7.199999809265136719e+00,3.700000047683715820e+00,4.402102682377062592e-09,1.179889075331175263e-08,1.295628905296325684e+00,-1.788680814206600189e-02,-1.794223114848136902e-02
7.511000000000000000e+03,7.300000190734863281e+00,3.700000047683715820e+00,4.464053127151146327e-09,1.214272504768132421e-08,1.295623421669006348e+00,-1.775144785642623901e-02,-1.808728277683258057e-02
7.512000000000000000e+03,7.400000095367431641e+00,3.700000047683715820e+00,4.526000907389970962e-09,1.249130665570419296e-08,1.295619845390319824e+00,-1.762628555297851562e-02,-1.821919903159141541e-02
7.513000000000000000e+03,7.500000000000000000e+00,3.700000047683715820e+00,4.587946911271956196e-09,1.284463824191561798e-08,1.295618176460266113e+00,-1.751079782843589783e-02,-1.833914965391159058e-02
7.514000000000000000e+03,7.599999904632568359e+00,3.700000047683715820e+00,4.649891582886311880e-09,1.320271980631559927e-08,1.295617938041687012e+00,-1.740446500480175018e-02,-1.844790391623973846e-02
7.515000000000000000e+03,7.699999809265136719e+00,3.700000047683715820e+00,4.711834922233038014e-09,1.356555312526097623e-08,1.295619010925292969e+00,-1.730676740407943726e-02,-1.854628697037696838e-02
7.516000000000000000e+03,7.800000190734863281e+00,3.700000047683715820e+00,4.773777373401344448e-09,1.393313908693016856e-08,1.295621275901794434e+00,-1.721719466149806976e-02,-1.863516308367252350e-02
7.517000000000000000e+03,7.900000095367431641e+00,3.700000047683715820e+00,4.835718492302021332e-09,1.430547502678791716e-08,1.295624375343322754e+00,-1.713524013757705688e-02,-1.871500536799430847e-02
7.518000000000000000e+03,8.000000000000000000e+00,3.700000047683715820e+00,4.897658723024278515e-09,1.468256360936948113e-08,1.295628190040588379e+00,-1.706041954457759857e-02,-1.878678426146507263e-02
7.519000000000000000e+03,8.100000381469726562e+00,3.700000047683715820e+00,4.959598509657325849e-09,1.506440661103169987e-08,1.295632600784301758e+00,-1.699225604534149170e-02,-1.885116286575794220e-02
7.520000000000000000e+03,8.199999809265136719e+00,3.700000047683715820e+00,5.021537408111953482e-09,1.545100047906089458e-08,1.295637369155883789e+00,-1.693029701709747314e-02,-1.890839636325836182e-02
7.521000000000000000e+03,8.300000190734863281e+00,3.700000047683715820e+00,5.083475862477371265e-09,1.584234965434916376e-08,1.295642614364624023e+00,-1.687409728765487671e-02,-1.895970478653907776e-02
7.522000000000000000e+03,8.399999618530273438e+00,3.700000047683715820e+00,5.145413428664369349e-09,1.623845058418282861e-08,1.295648097991943359e+00,-1.682324334979057312e-02,-1.900490559637546539e-02
7.523000000000000000e+03,8.500000000000000000e+00,3.700000047683715820e+00,5.207350994851367432e-09,1.663931037398924673e-08,1.295653820037841797e+00,-1.677733100950717926e-02,-1.904523558914661407e-02
7.524000000000000000e+03,8.600000381469726562e+00,3.700000047683715820e+00,5.269288561038365515e-09,1.704492547105473932e-08,1.295659542083740234e+00,-1.673598401248455048e-02,-1.908062398433685303e-02
7.525000000000000000e+03,8.699999809265136719e+00,3.700000047683715820e+00,5.331224794957734048e-09,1.745529054630878818e-08,1.295665383338928223e+00,-1.669884286820888519e-02,-1.911150850355625153e-02
7.526000000000000000e+03,8.800000190734863281e+00,3.700000047683715820e+00,5.393161917055522281e-09,1.787041625789242971e-08,1.295671105384826660e+00,-1.666556671261787415e-02,-1.913884840905666351e-02
7.527000000000000000e+03,8.899999618530273438e+00,3.700000047683715820e+00,5.455098150974890814e-09,1.829029372402146691e-08,1.295676827430725098e+00,-1.663583703339099884e-02,-1.916228979825973511e-02
7.528000000000000000e+03,9.000000000000000000e+00,3.700000047683715820e+00,5.517034828983469197e-09,1.871493005012325739e-08,1.295682430267333984e+00,-1.660935394465923309e-02,-1.918291114270687103e-02
7.529000000000000000e+03,9.100000381469726562e+00,3.700000047683715820e+00,5.578971506992047580e-09,1.914432345984096173e-08,1.295687913894653320e+00,-1.658583804965019226e-02,-1.920048892498016357e-02
7.530000000000000000e+03,9.199999809265136719e+00,3.700000047683715820e+00,5.640907296822206263e-09,1.957847040046090115e-08,1.295693159103393555e+00,-1.656502671539783478e-02,-1.921531930565834045e-02
7.531000000000000000e+03,9.300000190734863281e+00,3.700000047683715820e+00,5.702843974830784646e-09,2.001737797741043323e-08,1.295698285102844238e+00,-1.654667593538761139e-02,-1.922821998596191406e-02
7.532000000000000000e+03,9.399999618530273438e+00,3.700000047683715820e+00,5.764779764660943329e-09,2.046103908526220039e-08,1.295703291893005371e+00,-1.653055660426616669e-02,-1.923871040344238281e-02
7.533000000000000000e+03,9.500000000000000000e+00,3.700000047683715820e+00,5.826716442669521712e-09,2.090946082944356021e-08,1.295707941055297852e+00,-1.651646010577678680e-02,-1.924774609506130219e-02
7.534000000000000000e+03,9.600000381469726562e+00,3.700000047683715820e+00,5.888653120678100095e-09,2.136263965724083391e-08,1.295712471008300781e+00,-1.650419272482395172e-02,-1.925499178469181061e-02
7.535000000000000000e+03,9.699999809265136719e+00,3.700000047683715820e+00,5.950588910508258778e-09,2.182057201594034268e-08,1.295716762542724609e+00,-1.649357005953788757e-02,-1.926063187420368195e-02
7.536000000000000000e+03,9.800000190734863281e+00,3.700000047683715820e+00,6.012525588516837161e-09,2.228326678732628352e-08,1.295720934867858887e+00,-1.648443005979061127e-02,-1.926538720726966858e-02
7.537000000000000000e+03,9.899999618530273438e+00,3.700000047683715820e+00,6.074461822436205694e-09,2.275071508961445943e-08,1.295724749565124512e+00,-1.647661626338958740e-02,-1.926868222653865814e-02
7.538000000000000000e+03,1.000000000000000000e+01,3.700000047683715820e+00,6.136398944533993927e-09,2.322292580458906741e-08,1.295728445053100586e+00,-1.646999083459377289e-02,-1.927138864994049072e-02
7.539000000000000000e+03,1.010000038146972656e+01,3.700000047683715820e+00,6.198335622542572310e-09,2.369989537953642866e-08,1.295731782913208008e+00,-1.646442525088787079e-02,-1.927308924496173859e-02
7.540000000000000000e+03,1.019999980926513672e+01,3.700000047683715820e+00,6.260272300551150693e-09,2.418161848538602499e-08,1.295735001564025879e+00,-1.645980216562747955e-02,-1.927387900650501251e-02
7.541000000000000000e+03,1.030000019073486328e+01,3.700000047683715820e+00,6.322209422648938926e-09,2.466810400392205338e-08,1.295737981796264648e+00,-1.645601168274879456e-02,-1.927444338798522949e-02
7.542000000000000000e+03,1.039999961853027344e+01,3.700000047683715820e+00,6.384146100657517309e-09,2.515934305336031684e-08,1.295740842819213867e+00,-1.645295880734920502e-02,-1.927410438656806946e-02
7.543000000000000000e+03,1.050000000000000000e+01,3.700000047683715820e+00,6.446083222755305542e-09,2.565534629184185178e-08,1.295743465423583984e+00,-1.645055599510669708e-02,-1.927371136844158173e-02
7.544000000000000000e+03,1.060000038146972656e+01,3.700000047683715820e+00,6.508020788942303625e-09,2.615610839029613999e-08,1.295745849609375000e+00,-1.644871942698955536e-02,-1.927276141941547394e-02
7.545000000000000000e+03,1.069999980926513672e+01,3.700000047683715820e+00,6.569957466950882008e-09,2.666162401965266326e-08,1.295748114585876465e+00,-1.644737832248210907e-02,-1.927131973206996918e-02
7.546000000000000000e+03,1.080000019073486328e+01,3.700000047683715820e+00,6.631895033137880091e-09,2.717190206169561861e-08,1.295750260353088379e+00,-1.644646748900413513e-02,-1.927001774311065674e-02
7.547000000000000000e+03,1.089999961853027344e+01,3.700000047683715820e+00,6.693832155235668324e-09,2.768693541099764843e-08,1.295752167701721191e+00,-1.644592732191085815e-02,-1.926813833415508270e-02
7.548000000000000000e+03,1.100000000000000000e+01,3.700000047683715820e+00,6.755770165511876257e-09,2.820673294934294972e-08,1.295753955841064453e+00,-1.644570566713809967e-02,-1.926649548113346100e-02
7.549000000000000000e+03,1.110000038146972656e+01,3.700000047683715820e+00,6.817707731698874341e-09,2.873128757130416489e-08,1.295755624771118164e+00,-1.644575409591197968e-02,-1.926455087959766388e-02
7.550000000000000000e+03,1.119999980926513672e+01,3.700000047683715820e+00,6.879645297885872424e-09,2.926059750052445452e-08,1.295757055282592773e+00,-1.644602976739406586e-02,-1.926233619451522827e-02
7.551000000000000000e+03,1.130000019073486328e+01,3.700000047683715820e+00,6.941583308162080357e-09,2.979466984243117622e-08,1.295758485794067383e+00,-1.644649729132652283e-02,-1.926045678555965424e-02
7.552000000000000000e+03,1.139999961853027344e+01,3.700000047683715820e+00,7.003520430259868590e-09,3.033349926795381180e-08,1.295759677886962891e+00,-1.644711941480636597e-02,-1.925817131996154785e-02
7.553000000000000000e+03,1.150000000000000000e+01,3.700000047683715820e+00,7.065458884625286373e-09,3.087708932980604004e-08,1.295760869979858398e+00,-1.644787192344665527e-02,-1.925626769661903381e-02
7.554000000000000000e+03,1.160000038146972656e+01,3.700000047683715820e+00,7.127396894901494306e-09,3.142544002798786096e-08,1.295761942863464355e+00,-1.644872501492500305e-02,-1.925418712198734283e-02
7.555000000000000000e+03,1.169999980926513672e+01,3.700000047683715820e+00,7.189334461088492390e-09,3.197854425707191695e-08,1.295762896537780762e+00,-1.644965633749961853e-02,-1.925194635987281799e-02
7.556000000000000000e+03,1.180000019073486328e+01,3.700000047683715820e+00,7.251272915453910173e-09,3.253641267519924440e-08,1.295763731002807617e+00,-1.645064540207386017e-02,-1.925013214349746704e-02
7.557000000000000000e+03,1.189999961853027344e+01,3.700000047683715820e+00,7.313210481640908256e-09,3.309903462422880693e-08,1.295764446258544922e+00,-1.645167730748653412e-02,-1.924798823893070221e-02
7.558000000000000000e+03,1.200000000000000000e+01,3.700000047683715820e+00,7.375148936006326039e-09,3.366642076230164093e-08,1.295765161514282227e+00,-1.645273528993129730e-02,-1.924628950655460358e-02
7.559000000000000000e+03,1.210000038146972656e+01,3.700000047683715820e+00,7.437087390371743822e-09,3.423856753670406761e-08,1.295765876770019531e+00,-1.645380631089210510e-02,-1.924446597695350647e-02
7.560000000000000000e+03,1.219999980926513672e+01,3.700000047683715820e+00,7.499025400647951756e-09,3.481546784200872935e-08,1.295766353607177734e+00,-1.645487919449806213e-02,-1.924252323806285858e-02
7.561000000000000000e+03,1.230000019073486328e+01,3.700000047683715820e+00,7.560963410924159689e-09,3.539713233635666256e-08,1.295766949653625488e+00,-1.645594649016857147e-02,-1.924104243516921997e-02
7.562000000000000000e+03,1.239999961853027344e+01,3.700000047683715820e+00,7.622901421200367622e-09,3.598354680889315205e-08,1.295767426490783691e+00,-1.645699702203273773e-02,-1.923925429582595825e-02
7.563000000000000000e+03,1.250000000000000000e+01,3.700000047683715820e+00,7.684840319654995255e-09,3.657472902318659180e-08,1.295767784118652344e+00,-1.645802892744541168e-02,-1.923792995512485504e-02
7.564000000000000000e+03,1.260000038146972656e+01,3.700000047683715820e+00,7.746779218109622889e-09,3.717067187380962423e-08,1.295768141746520996e+00,-1.645903103053569794e-02,-1.923649385571479797e-02
7.565000000000000000e+03,1.269999980926513672e+01,3.700000047683715820e+00,7.808717228385830822e-09,3.777136825533489173e-08,1.295768499374389648e+00,-1.646000519394874573e-02,-1.923494599759578705e-02
7.566000000000000000e+03,1.280000019073486328e+01,3.700000047683715820e+00,7.870655238662038755e-09,3.837682527318975190e-08,1.295768737792968750e+00,-1.646094396710395813e-02,-1.923386007547378540e-02
7.567000000000000000e+03,1.289999961853027344e+01,3.700000047683715820e+00,7.932593248938246688e-09,3.898703937466052594e-08,1.295768976211547852e+00,-1.646184548735618591e-02,-1.923246681690216064e-02
7.568000000000000000e+03,1.300000000000000000e+01,3.700000047683715820e+00,7.994532147392874322e-09,3.960201766517457145e-08,1.295769214630126953e+00,-1.646270789206027985e-02,-1.923153363168239594e-02
7.569000000000000000e+03,1.310000038146972656e+01,3.700000047683715820e+00,8.056471045847501955e-09,4.022175659201820963e-08,1.295769453048706055e+00,-1.646352931857109070e-02,-1.923048123717308044e-02
7.570000000000000000e+03,1.319999980926513672e+01,3.700000047683715820e+00,8.118409056123709888e-09,4.084624549705040408e-08,1.295769572257995605e+00,-1.646431162953376770e-02,-1.922930590808391571e-02
7.571000000000000000e+03,1.330000019073486328e+01,3.700000047683715820e+00,8.180347954578337522e-09,4.147550214383954881e-08,1.295769691467285156e+00,-1.646504923701286316e-02,-1.922858320176601410e-02
7.572000000000000000e+03,1.339999961853027344e+01,3.700000047683715820e+00,8.242285964854545455e-09,4.210950876881724980e-08,1.295769929885864258e+00,-1.646574772894382477e-02,-1.922754012048244476e-02
7.573000000000000000e+03,1.350000000000000000e+01,3.700000047683715820e+00,8.304224863309173088e-09,4.274828313555190107e-08,1.295770049095153809e+00,-1.646640151739120483e-02,-1.922694407403469086e-02
7.574000000000000000e+03,1.360000038146972656e+01,3.700000047683715820e+00,8.366163761763800721e-09,4.339181458590246621e-08,1.295770049095153809e+00,-1.646701432764530182e-02,-1.922621391713619232e-02
7.575000000000000000e+03,1.369999980926513672e+01,3.700000047683715820e+00,8.428101772040008655e-09,4.404010311986894521e-08,1.295770168304443359e+00,-1.646758429706096649e-02,-1.922534592449665070e-02
7.576000000000000000e+03,1.380000019073486328e+01,3.700000047683715820e+00,8.490040670494636288e-09,4.469315229016501689e-08,1.295770287513732910e+00,-1.646811328828334808e-02,-1.922491192817687988e-02
7.577000000000000000e+03,1.389999961853027344e+01,3.700000047683715820e+00,8.551979568949263921e-09,4.535095499136332364e-08,1.295770287513732910e+00,-1.646860130131244659e-02,-1.922414451837539673e-02
7.578000000000000000e+03,1.400000000000000000e+01,3.700000047683715820e+00,8.613918467403891555e-09,4.601352543431858066e-08,1.295770406723022461e+00,-1.646904647350311279e-02,-1.922380551695823669e-02
7.579000000000000000e+03,1.410000038146972656e+01,3.700000047683715820e+00,8.675856477680099488e-09,4.668085296088975156e-08,1.295770406723022461e+00,-1.646945066750049591e-02,-1.922331564128398895e-02
7.580000000000000000e+03,1.419999980926513672e+01,3.700000047683715820e+00,8.737795376134727121e-09,4.735293401836315752e-08,1.295770525932312012e+00,-1.646981388330459595e-02,-1.922267302870750427e-02
7.581000000000000000e+03,1.430000019073486328e+01,3.700000047683715820e+00,8.799734274589354754e-09,4.802978281759351376e-08,1.295770525932312012e+00,-1.647013239562511444e-02,-1.922244764864444733e-02
7.582000000000000000e+03,1.439999961853027344e+01,3.700000047683715820e+00,8.861672284865562688e-09,4.871138159501242626e-08,1.295770525932312012e+00,-1.647040620446205139e-02,-1.922187209129333496e-02
7.583000000000000000e+03,1.450000000000000000e+01,3.700000047683715820e+00,8.923611183320190321e-09,4.939774811418828904e-08,1.295770525932312012e+00,-1.647063344717025757e-02,-1.922170631587505341e-02
7.584000000000000000e+03,1.460000038146972656e+01,3.700000047683715820e+00,8.985550081774817954e-09,5.008887171698006568e-08,1.295770525932312012e+00,-1.647081412374973297e-02,-1.922137476503849030e-02
7.585000000000000000e+03,1.469999980926513672e+01,3.700000047683715820e+00,9.047488092051025887e-09,5.078474885067407740e-08,1.295770525932312012e+00,-1.647094078361988068e-02,-1.922087185084819794e-02
7.586000000000000000e+03,1.480000019073486328e+01,3.700000047683715820e+00,9.109426990505653521e-09,5.148539017341136059e-08,1.295770525932312012e+00,-1.647101342678070068e-02,-1.922076940536499023e-02
7.587000000000000000e+03,1.489999961853027344e+01,3.700000047683715820e+00,9.171365888960281154e-09,5.219078502705087885e-08,1.295770525932312012e+00,-1.647102460265159607e-02,-1.922029815614223480e-02
7.588000000000000000e+03,1.500000000000000000e+01,3.700000047683715820e+00,9.233304787414908787e-09,5.290094406973366858e-08,1.295770525932312012e+00,-1.647097058594226837e-02,-1.922022178769111633e-02
7.589000000000000000e+03,1.510000038146972656e+01,3.700000047683715820e+00,9.295243685869536421e-09,5.361586374874605099e-08,1.295770406723022461e+00,-1.647084206342697144e-02,-1.921995915472507477e-02
7.590000000000000000e+03,1.519999980926513672e+01,3.700000047683715820e+00,9.357181696145744354e-09,5.433553695866066846e-08,1.295770406723022461e+00,-1.647063158452510834e-02,-1.921950466930866241e-02
7.591000000000000000e+03,1.530000019073486328e+01,3.700000047683715820e+00,9.419120594600371987e-09,5.505997435761855741e-08,1.295770287513732910e+00,-1.647032797336578369e-02,-1.921943575143814087e-02
7.592000000000000000e+03,1.539999961853027344e+01,3.700000047683715820e+00,9.481058604876579921e-09,5.578916528747868142e-08,1.295770049095153809e+00,-1.646992005407810211e-02,-1.921897381544113159e-02
7.593000000000000000e+03,1.550000000000000000e+01,3.700000047683715820e+00,9.542997503331207554e-09,5.652312040638207691e-08,1.295769929885864258e+00,-1.646939292550086975e-02,-1.921888440847396851e-02
7.594000000000000000e+03,1.560000038146972656e+01,3.700000047683715820e+00,9.604936401785835187e-09,5.726183616161506507e-08,1.295769572257995605e+00,-1.646873168647289276e-02,-1.921858638525009155e-02
7.595000000000000000e+03,1.569999980926513672e+01,3.700000047683715820e+00,9.666874412062043120e-09,5.800530544775028829e-08,1.295769333839416504e+00,-1.646791584789752960e-02,-1.921807415783405304e-02
7.596000000000000000e+03,1.580000019073486328e+01,3.700000047683715820e+00,9.728813310516670754e-09,5.875353892292878299e-08,1.295768857002258301e+00,-1.646692492067813873e-02,-1.921791769564151764e-02
7.597000000000000000e+03,1.589999961853027344e+01,3.700000047683715820e+00,9.790751320792878687e-09,5.950652237629583396e-08,1.295768260955810547e+00,-1.646573469042778015e-02,-1.921734400093555450e-02
7.598000000000000000e+03,1.600000000000000000e+01,3.700000047683715820e+00,9.852690219247506320e-09,6.026427712413351401e-08,1.295767664909362793e+00,-1.646431721746921539e-02,-1.921711117029190063e-02
7.599000000000000000e+03,1.610000038146972656e+01,3.700000047683715820e+00,9.914629117702133954e-09,6.102678895558710792e-08,1.295766830444335938e+00,-1.646263897418975830e-02,-1.921663992106914520e-02
7.600000000000000000e+03,1.620000076293945312e+01,3.700000047683715820e+00,9.976567127978341887e-09,6.179405431794293690e-08,1.295765757560729980e+00,-1.646066829562187195e-02,-1.921611465513706207e-02
7.601000000000000000e+03,1.629999923706054688e+01,3.700000047683715820e+00,1.003850425007613012e-08,6.256607321120100096e-08,1.295764565467834473e+00,-1.645836420357227325e-02,-1.921514049172401428e-02
7.602000000000000000e+03,1.639999961853027344e+01,3.700000047683715820e+00,1.010044314853075775e-08,6.334285984621601528e-08,1.295763015747070312e+00,-1.645568199455738068e-02,-1.921486854553222656e-02
7.603000000000000000e+03,1.650000000000000000e+01,3.700000047683715820e+00,1.016238115880696569e-08,6.412440711756062228e-08,1.295761108398437500e+00,-1.645257510244846344e-02,-1.921413466334342957e-02
7.604000000000000000e+03,1.660000038146972656e+01,3.700000047683715820e+00,1.022431916908317362e-08,6.491071502523482195e-08,1.295758843421936035e+00,-1.644899323582649231e-02,-1.921331882476806641e-02
7.605000000000000000e+03,1.670000076293945312e+01,3.700000047683715820e+00,1.028625717935938155e-08,6.570177646381125669e-08,1.295756220817565918e+00,-1.644487679004669189e-02,-1.921241544187068939e-02
7.606000000000000000e+03,1.679999923706054688e+01,3.700000047683715820e+00,1.034819341327875009e-08,6.649758432786256890e-08,1.295753002166748047e+00,-1.644016802310943604e-02,-1.921103894710540771e-02
7.607000000000000000e+03,1.689999961853027344e+01,3.700000047683715820e+00,1.041013053537653832e-08,6.729817414452554658e-08,1.295749187469482422e+00,-1.643480360507965088e-02,-1.921034045517444611e-02
7.608000000000000000e+03,1.700000000000000000e+01,3.700000047683715820e+00,1.047206765747432655e-08,6.810351749209075933e-08,1.295744657516479492e+00,-1.642871461808681488e-02,-1.920917443931102753e-02
7.609000000000000000e+03,1.710000038146972656e+01,3.700000047683715820e+00,1.053400477957211478e-08,6.891361437055820716e-08,1.295739173889160156e+00,-1.642183773219585419e-02,-1.920793019235134125e-02
7.610000000000000000e+03,1.720000076293945312e+01,3.700000047683715820e+00,1.059594101349148332e-08,6.972847899078260525e-08,1.295732855796813965e+00,-1.641410402953624725e-02,-1.920662820339202881e-02
7.611000000000000000e+03,1.729999923706054688e+01,3.700000047683715820e+00,1.065787547105401245e-08,7.054808293105452321e-08,1.295725226402282715e+00,-1.640545390546321869e-02,-1.920491270720958710e-02
7.612000000000000000e+03,1.739999961853027344e+01,3.700000047683715820e+00,1.071981081679496128e-08,7.137246171851074905e-08,1.295716404914855957e+00,-1.639582961797714233e-02,-1.920397393405437469e-02
7.613000000000000000e+03,1.750000000000000000e+01,3.700000047683715820e+00,1.078174527435749042e-08,7.220160114229656756e-08,1.295706033706665039e+00,-1.638519018888473511e-02,-1.920272037386894226e-02
7.614000000000000000e+03,1.760000038146972656e+01,3.700000047683715820e+00,1.084367884374159985e-08,7.303549409698462114e-08,1.295693993568420410e+00,-1.637351512908935547e-02,-1.920161582529544830e-02
7.615000000000000000e+03,1.770000076293945312e+01,3.700000047683715820e+00,1.090561241312570928e-08,7.387415479342962499e-08,1.295679926872253418e+00,-1.636080630123615265e-02,-1.920076832175254822e-02
7.616000000000000000e+03,1.779999923706054688e+01,3.700000047683715820e+00,1.096754331797455961e-08,7.471754770449479111e-08,1.295663595199584961e+00,-1.634711399674415588e-02,-1.919993758201599121e-02
7.617000000000000000e+03,1.789999961853027344e+01,3.700000047683715820e+00,1.102947422282340995e-08,7.556572256817162270e-08,1.295644760131835938e+00,-1.633253693580627441e-02,-1.920045912265777588e-02
7.618000000000000000e+03,1.800000000000000000e+01,3.700000047683715820e+00,1.109140335131542088e-08,7.641865096275068936e-08,1.295623064041137695e+00,-1.631725393235683441e-02,-1.920141838490962982e-02
7.619000000000000000e+03,1.810000038146972656e+01,3.700000047683715820e+00,1.115333159162901211e-08,7.727634709908670629e-08,1.295598268508911133e+00,-1.630154624581336975e-02,-1.920349337160587311e-02
7.620000000000000000e+03,1.820000076293945312e+01,3.700000047683715820e+00,1.121525894376418364e-08,7.813879676632495830e-08,1.295569896697998047e+00,-1.628581993281841278e-02,-1.920704916119575500e-02
7.621000000000000000e+03,1.829999923706054688e+01,3.700000047683715820e+00,1.127718274318567637e-08,7.900598575361073017e-08,1.295537948608398438e+00,-1.627065986394882202e-02,-1.921213418245315552e-02
7.622000000000000000e+03,1.839999961853027344e+01,3.700000047683715820e+00,1.133910565442874940e-08,7.987794958808080992e-08,1.295501947402954102e+00,-1.625685952603816986e-02,-1.922040805220603943e-02
7.623000000000000000e+03,1.850000000000000000e+01,3.700000047683715820e+00,1.140102678931498303e-08,8.075467405888048233e-08,1.295461773872375488e+00,-1.624548807740211487e-02,-1.923129335045814514e-02
7.624000000000000000e+03,1.860000038146972656e+01,3.700000047683715820e+00,1.146294525966595756e-08,8.163615206058238982e-08,1.295417666435241699e+00,-1.623793318867683411e-02,-1.924577914178371429e-02
7.625000000000000000e+03,1.870000076293945312e+01,3.700000047683715820e+00,1.152486195366009269e-08,8.252239069861388998e-08,1.295369625091552734e+00,-1.623596437275409698e-02,-1.926446706056594849e-02
7.626000000000000000e+03,1.879999923706054688e+01,3.700000047683715820e+00,1.158677420676212932e-08,8.341336155126555241e-08,1.295318245887756348e+00,-1.624176278710365295e-02,-1.928748190402984619e-02
7.627000000000000000e+03,1.889999961853027344e+01,3.700000047683715820e+00,1.164868645986416595e-08,8.430911435652888031e-08,1.295264482498168945e+00,-1.625793054699897766e-02,-1.931626908481121063e-02
7.628000000000000000e+03,1.900000000000000000e+01,3.700000047683715820e+00,1.171059604843094348e-08,8.520962069269444328e-08,1.295209765434265137e+00,-1.628742925822734833e-02,-1.934957504272460938e-02
7.629000000000000000e+03,1.910000038146972656e+01,3.700000047683715820e+00,1.177250386064088161e-08,8.611488766518959892e-08,1.295156002044677734e+00,-1.633342728018760681e-02,-1.938705705106258392e-02
7.630000000000000000e+03,1.920000076293945312e+01,3.700000047683715820e+00,1.183440989649398034e-08,8.702490816858698963e-08,1.295105695724487305e+00,-1.639900729060173035e-02,-1.942710019648075104e-02
7.631000000000000000e+03,1.929999923706054688e+01,3.700000047683715820e+00,1.189631415599023967e-08,8.793966799203190021e-08,1.295061707496643066e+00,-1.648671180009841919e-02,-1.946656033396720886e-02
7.632000000000000000e+03,1.939999961853027344e+01,3.700000047683715820e+00,1.195821930366491870e-08,8.885920266266111867e-08,1.295027017593383789e+00,-1.659795455634593964e-02,-1.950253546237945557e-02
7.633000000000000000e+03,1.950000000000000000e+01,3.700000047683715820e+00,1.202012533951801743e-08,8.978349086419257219e-08,1.295004010200500488e+00,-1.673232764005661011e-02,-1.952855102717876434e-02
7.634000000000000000e+03,1.960000038146972656e+01,3.700000047683715820e+00,1.208203315172795556e-08,9.071254680748097599e-08,1.294994115829467773e+00,-1.688700355589389801e-02,-1.953877508640289307e-02
7.635000000000000000e+03,1.970000076293945312e+01,3.700000047683715820e+00,1.214394362847315278e-08,9.164636338709897245e-08,1.294996976852416992e+00,-1.705641299486160278e-02,-1.952683180570602417e-02
7.636000000000000000e+03,1.979999923706054688e+01,3.700000047683715820e+00,1.220585588157518941e-08,9.258493349761920399e-08,1.295009732246398926e+00,-1.723240502178668976e-02,-1.948686689138412476e-02
7.637000000000000000e+03,1.989999961853027344e+01,3.700000047683715820e+00,1.226777257556932454e-08,9.352828556075110100e-08,1.295027494430541992e+00,-1.740505546331405640e-02,-1.941666379570960999e-02
7.638000000000000000e+03,2.000000000000000000e+01,3.700000047683715820e+00,1.232969282227713848e-08,9.447641247106730589e-08,1.295043706893920898e+00,-1.756397075951099396e-02,-1.931477151811122894e-02
7.639000000000000000e+03,0.000000000000000000e+00,3.799999952316284180e+00,4.123064293656802790e-38,1.245635224415294767e-39,1.155791401863098145e+00,3.467374145984649658e-01,-2.881721258163452148e-01
7.640000000000000000e+03,1.000000014901161194e-01,3.799999952316284180e+00,5.008429435071626301e-11,-3.567845324736751422e-11,1.151339292526245117e+00,3.318970203399658203e-01,-3.190470933914184570e-01
7.641000000000000000e+03,2.000000029802322388e-01,3.799999952316284180e+00,1.005652297547676710e-10,-6.457176460195057643e-11,1.155327916145324707e+00,3.174274265766143799e-01,-2.957152426242828369e-01
7.642000000000000000e+03,3.000000119209289551e-01,3.799999952316284180e+00,1.514960934478892796e-10,-8.682393692893697335e-11,1.159874200820922852e+00,3.010871708393096924e-01,-2.740558981895446777e-01
7.643000000000000000e+03,4.000000059604644775e-01,3.799999952316284180e+00,2.029218043597680321e-10,-1.025319273928460007e-10,1.164894700050354004e+00,2.831821143627166748e-01,-2.536210715770721436e-01
7.644000000000000000e+03,5.000000000000000000e-01,3.799999952316284180e+00,2.548725952511432524e-10,-1.117551814977524316e-10,1.170203685760498047e+00,2.641229033470153809e-01,-2.340686470270156860e-01
7.645000000000000000e+03,6.000000238418579102e-01,3.799999952316284180e+00,3.073611087867078595e-10,-1.145274569624987748e-10,1.175566792488098145e+00,2.443614304065704346e-01,-2.151824533939361572e-01
7.646000000000000000e+03,6.999999880790710449e-01,3.799999952316284180e+00,3.603825293740925417e-10,-1.108685435124989738e-10,1.180751562118530273e+00,2.243374884128570557e-01,-1.968653351068496704e-01
7.647000000000000000e+03,8.000000119209289551e-01,3.799999952316284180e+00,4.139173725992151276e-10,-1.007941854980209939e-10,1.185564041137695312e+00,2.044418007135391235e-01,-1.791142374277114868e-01
7.648000000000000000e+03,8.999999761581420898e-01,3.799999952316284180e+00,4.679349685510203471e-10,-8.432322895490784731e-11,1.189868330955505371e+00,1.849965453147888184e-01,-1.619878709316253662e-01
7.649000000000000000e+03,1.000000000000000000e+00,3.799999952316284180e+00,5.223975141355197138e-10,-6.148201392441876578e-11,1.193588733673095703e+00,1.662499159574508667e-01,-1.455760449171066284e-01
7.650000000000000000e+03,1.100000023841857910e+00,3.799999952316284180e+00,5.772636257894703249e-10,-3.230645612140037315e-11,1.196702361106872559e+00,1.483804434537887573e-01,-1.299750059843063354e-01
7.651000000000000000e+03,1.200000047683715820e+00,3.799999952316284180e+00,6.324910595267851932e-10,3.157702181330601654e-12,1.199226856231689453e+00,1.315063387155532837e-01,-1.152711287140846252e-01
7.652000000000000000e+03,1.299999952316284180e+00,3.799999952316284180e+00,6.880384595397970315e-10,4.485562268841114530e-11,1.201206207275390625e+00,1.156966388225555420e-01,-1.015314981341362000e-01
7.653000000000000000e+03,1.399999976158142090e+00,3.799999952316284180e+00,7.438673010895513471e-10,9.272504292168193274e-11,1.202699780464172363e+00,1.009820550680160522e-01,-8.880034834146499634e-02
7.654000000000000000e+03,1.500000000000000000e+00,3.799999952316284180e+00,7.999417794835039786e-10,1.466976679020959295e-10,1.203773021697998047e+00,8.736471831798553467e-02,-7.709887623786926270e-02
7.655000000000000000e+03,1.600000023841857910e+00,3.799999952316284180e+00,8.562295872316383338e-10,2.067010312911676806e-10,1.204491138458251953e+00,7.482593506574630737e-02,-6.642758101224899292e-02
7.656000000000000000e+03,1.700000047683715820e+00,3.799999952316284180e+00,9.127017475130116964e-10,2.726601444624776605e-10,1.204915761947631836e+00,6.333243846893310547e-02,-5.676936358213424683e-02
7.657000000000000000e+03,1.799999952316284180e+00,3.799999952316284180e+00,9.693326141757552250e-10,3.444986795830828896e-10,1.205101966857910156e+00,5.284114181995391846e-02,-4.809294641017913818e-02
7.658000000000000000e+03,1.899999976158142090e+00,3.799999952316284180e+00,1.026099649692469029e-09,4.221406002535843527e-10,1.205098509788513184e+00,4.330259189009666443e-02,-4.035637155175209045e-02
7.659000000000000000e+03,2.000000000000000000e+00,3.799999952316284180e+00,1.082982925559861087e-09,5.055106888640636953e-10,1.204946756362915039e+00,3.466366976499557495e-02,-3.350975364446640015e-02
7.660000000000000000e+03,2.099999904632568359e+00,3.799999952316284180e+00,1.139964789231839859e-09,5.945353098724126539e-10,1.204681515693664551e+00,2.686939761042594910e-02,-2.749809995293617249e-02
7.661000000000000000e+03,2.200000047683715820e+00,3.799999952316284180e+00,1.197030252697572905e-09,6.891439086054162999e-10,1.204331874847412109e+00,1.986428350210189819e-02,-2.226342447102069855e-02
7.662000000000000000e+03,2.299999952316284180e+00,3.799999952316284180e+00,1.254165660213857336e-09,7.892677622578503360e-10,1.203921675682067871e+00,1.359337195754051208e-02,-1.774614490568637848e-02
7.663000000000000000e+03,2.400000095367431641e+00,3.799999952316284180e+00,1.311359465461237050e-09,8.948423668719840407e-10,1.203469991683959961e+00,8.002795279026031494e-03,-1.388706639409065247e-02
7.664000000000000000e+03,2.500000000000000000e+00,3.799999952316284180e+00,1.368601343365583034e-09,1.005805772003043330e-09,1.202992558479309082e+00,3.040394280105829239e-03,-1.062766928225755692e-02
7.665000000000000000e+03,2.599999904632568359e+00,3.799999952316284180e+00,1.425882523165000748e-09,1.122100079520294003e-09,1.202501654624938965e+00,-1.344057964161038399e-03,-7.911641150712966919e-03
7.666000000000000000e+03,2.700000047683715820e+00,3.799999952316284180e+00,1.483195233298317817e-09,1.243671166051285581e-09,1.202007055282592773e+00,-5.198575556278228760e-03,-5.684943869709968567e-03
7.667000000000000000e+03,2.799999952316284180e+00,3.799999952316284180e+00,1.540532701405084026e-09,1.370467628269977922e-09,1.201516628265380859e+00,-8.568787015974521637e-03,-3.896222217008471489e-03
7.668000000000000000e+03,2.900000095367431641e+00,3.799999952316284180e+00,1.597889265347873788e-09,1.502442725787034306e-09,1.201036334037780762e+00,-1.149791479110717773e-02,-2.497555455192923546e-03
7.669000000000000000e+03,3.000000000000000000e+00,3.799999952316284180e+00,1.655259596056168903e-09,1.639552160703772188e-09,1.200570583343505859e+00,-1.402665488421916962e-02,-1.443844987079501152e-03
7.670000000000000000e+03,3.099999904632568359e+00,3.799999952316284180e+00,1.712639585704778256e-09,1.781755631924397676e-09,1.200122833251953125e+00,-1.619322784245014191e-02,-6.936293211765587330e-04
7.671000000000000000e+03,3.200000047683715820e+00,3.799999952316284180e+00,1.770025570557720584e-09,1.929016280044493215e-09,1.199695467948913574e+00,-1.803336665034294128e-02,-2.085634187096729875e-04
7.672000000000000000e+03,3.299999952316284180e+00,3.799999952316284180e+00,1.827414330968224476e-09,2.081299355083388036e-09,1.199290275573730469e+00,-1.958034746348857880e-02,4.664015432354062796e-05
7.673000000000000000e+03,3.400000095367431641e+00,3.799999952316284180e+00,1.884803424445635756e-09,2.238574436930207412e-09,1.198908448219299316e+00,-2.086508274078369141e-02,1.038134068949148059e-04
7.674000000000000000e+03,3.500000000000000000e+00,3.799999952316284180e+00,1.942190186454695322e-09,2.400811771607891387e-09,1.198550462722778320e+00,-2.191615104675292969e-02,-7.780013220326509327e-06
7.675000000000000000e+03,3.599999904632568359e+00,3.799999952316284180e+00,1.999573173705471163e-09,2.567986490120688359e-09,1.198216557502746582e+00,-2.275991626083850861e-02,-2.620501036290079355e-04
7.676000000000000000e+03,3.700000047683715820e+00,3.799999952316284180e+00,2.056951053930333728e-09,2.740075277785081198e-09,1.197906613349914551e+00,-2.342059835791587830e-02,-6.354145007207989693e-04
7.677000000000000000e+03,3.799999952316284180e+00,3.799999952316284180e+00,2.114322272817048542e-09,2.917055930140577402e-09,1.197620272636413574e+00,-2.392037399113178253e-02,-1.106627634726464748e-03
7.678000000000000000e+03,3.900000095367431641e+00,3.799999952316284180e+00,2.171686164231800831e-09,3.098910683618782969e-09,1.197356939315795898e+00,-2.427948825061321259e-02,-1.657109474763274193e-03
7.679000000000000000e+03,4.000000000000000000e+00,3.799999952316284180e+00,2.229041839996170893e-09,3.285620886472884195e-09,1.197115898132324219e+00,-2.451635710895061493e-02,-2.270021708682179451e-03
7.680000000000000000e+03,4.099999904632568359e+00,3.799999952316284180e+00,2.286389078065553804e-09,3.477172327848165878e-09,1.196896314620971680e+00,-2.464766986668109894e-02,-2.930848160758614540e-03
7.681000000000000000e+03,4.199999809265136719e+00,3.799999952316284180e+00,2.343727212306134788e-09,3.673550796889912817e-09,1.196697115898132324e+00,-2.468850649893283844e-02,-3.626684891059994698e-03
7.682000000000000000e+03,4.300000190734863281e+00,3.799999952316284180e+00,2.401056686807123697e-09,3.874745413412483686e-09,1.196517467498779297e+00,-2.465243823826313019e-02,-4.346417728811502457e-03
7.683000000000000000e+03,4.400000095367431641e+00,3.799999952316284180e+00,2.458376613390100829e-09,4.080743298828792831e-09,1.196356177330017090e+00,-2.455163560807704926e-02,-5.080062896013259888e-03
7.684000000000000000e+03,4.500000000000000000e+00,3.799999952316284180e+00,2.515687658188880960e-09,4.291536015443853103e-09,1.196212172508239746e+00,-2.439696900546550751e-02,-5.819551646709442139e-03
7.685000000000000000e+03,4.599999904632568359e+00,3.799999952316284180e+00,2.572989599158859164e-09,4.507115125562677349e-09,1.196084260940551758e+00,-2.419811487197875977e-02,-6.557677406817674637e-03
7.686000000000000000e+03,4.699999809265136719e+00,3.799999952316284180e+00,2.630282880389245292e-09,4.727473967847117819e-09,1.195971488952636719e+00,-2.396364323794841766e-02,-7.288422901183366776e-03
7.687000000000000000e+03,4.800000190734863281e+00,3.799999952316284180e+00,2.687568168013854120e-09,4.952606325048236613e-09,1.195872783660888672e+00,-2.370111458003520966e-02,-8.006845600903034210e-03
7.688000000000000000e+03,4.900000095367431641e+00,3.799999952316284180e+00,2.744844795898870871e-09,5.182505091738676128e-09,1.195786952972412109e+00,-2.341716922819614410e-02,-8.708517998456954956e-03
7.689000000000000000e+03,5.000000000000000000e+00,3.799999952316284180e+00,2.802113652222715245e-09,5.417166271115547715e-09,1.195713043212890625e+00,-2.311760187149047852e-02,-9.390338324010372162e-03
7.690000000000000000e+03,5.099999904632568359e+00,3.799999952316284180e+00,2.859375181074597094e-09,5.656586310465172573e-09,1.195649981498718262e+00,-2.280744910240173340e-02,-1.004953775554895401e-02
7.691000000000000000e+03,5.199999809265136719e+00,3.799999952316284180e+00,2.916629604499121342e-09,5.900761657073871902e-09,1.195596814155578613e+00,-2.249105274677276611e-02,-1.068403758108615875e-02
7.692000000000000000e+03,5.300000190734863281e+00,3.799999952316284180e+00,2.973877588630102764e-09,6.149690534584806301e-09,1.195552706718444824e+00,-2.217213436961174011e-02,-1.129238307476043701e-02
7.693000000000000000e+03,5.400000095367431641e+00,3.799999952316284180e+00,3.031119133467541360e-09,6.403368502105877269e-09,1.195516705513000488e+00,-2.185386046767234802e-02,-1.187321357429027557e-02
7.694000000000000000e+03,5.500000000000000000e+00,3.799999952316284180e+00,3.088354905145251905e-09,6.661794671458665107e-09,1.195488095283508301e+00,-2.153889462351799011e-02,-1.242611929774284363e-02
7.695000000000000000e+03,5.599999904632568359e+00,3.799999952316284180e+00,3.145584903663234400e-09,6.924967710375540264e-09,1.195465922355651855e+00,-2.122945524752140045e-02,-1.295067183673381805e-02
7.696000000000000000e+03,5.699999809265136719e+00,3.799999952316284180e+00,3.202810017199908543e-09,7.192886286588873190e-09,1.195449590682983398e+00,-2.092736214399337769e-02,-1.344682835042476654e-02
7.697000000000000000e+03,5.800000190734863281e+00,3.799999952316284180e+00,3.260030689844484186e-09,7.465550844187873736e-09,1.195438504219055176e+00,-2.063409052789211273e-02,-1.391487848013639450e-02
7.698000000000000000e+03,5.900000095367431641e+00,3.799999952316284180e+00,3.317246699552356404e-09,7.742957386369653250e-09,1.195431828498840332e+00,-2.035080641508102417e-02,-1.435496099293231964e-02
7.699000000000000000e+03,6.000000000000000000e+00,3.799999952316284180e+00,3.374458712457339971e-09,8.025108577669470833e-09,1.195429205894470215e+00,-2.007840201258659363e-02,-1.476793084293603897e-02
7.700000000000000000e+03,6.099999904632568359e+00,3.799999952316284180e+00,3.431666950604039812e-09,8.312002641730487085e-09,1.195429921150207520e+00,-1.981753669679164886e-02,-1.515442598611116409e-02
7.701000000000000000e+03,6.199999809265136719e+00,3.799999952316284180e+00,3.488871858081665778e-09,8.603639578552702005e-09,1.195433735847473145e+00,-1.956866309046745300e-02,-1.551528461277484894e-02
7.702000000000000000e+03,6.300000190734863281e+00,3.799999952316284180e+00,3.546074101024032643e-09,8.900022052671374695e-09,1.195439934730529785e+00,-1.933205872774124146e-02,-1.585151813924312592e-02
7.703000000000000000e+03,6.400000095367431641e+00,3.799999952316284180e+00,3.603273013297325633e-09,9.201146511372826353e-09,1.195448160171508789e+00,-1.910785399377346039e-02,-1.616384647786617279e-02
7.704000000000000000e+03,6.500000000000000000e+00,3.799999952316284180e+00,3.660469483079964448e-09,9.507015619192316080e-09,1.195458292961120605e+00,-1.889604143798351288e-02,-1.645358093082904816e-02
7.705000000000000000e+03,6.599999904632568359e+00,3.799999952316284180e+00,3.717663732416554012e-09,9.817628487951424177e-09,1.195469737052917480e+00,-1.869651675224304199e-02,-1.672170311212539673e-02
7.706000000000000000e+03,6.699999809265136719e+00,3.799999952316284180e+00,3.774855539262489401e-09,1.013298600582857034e-08,1.195482254028320312e+00,-1.850907690823078156e-02,-1.696930266916751862e-02
7.707000000000000000e+03,6.800000190734863281e+00,3.799999952316284180e+00,3.832046235885400165e-09,1.045309083735901368e-08,1.195495724678039551e+00,-1.833344623446464539e-02,-1.719755679368972778e-02
7.708000000000000000e+03,6.900000095367431641e+00,3.799999952316284180e+00,3.889234712062261679e-09,1.077793942982907538e-08,1.195509791374206543e+00,-1.816929690539836884e-02,-1.740728504955768585e-02
7.709000000000000000e+03,7.000000000000000000e+00,3.799999952316284180e+00,3.946421855971493642e-09,1.110753444777401455e-08,1.195524334907531738e+00,-1.801624335348606110e-02,-1.759983226656913757e-02
7.710000000000000000e+03,7.099999904632568359e+00,3.799999952316284180e+00,4.003607667613096055e-09,1.144187677937225089e-08,1.195539116859436035e+00,-1.787386834621429443e-02,-1.777616329491138458e-02
7.711000000000000000e+03,7.199999809265136719e+00,3.799999952316284180e+00,4.060792146987068918e-09,1.178096642462378441e-08,1.195554018020629883e+00,-1.774172671139240265e-02,-1.793730817735195160e-02
7.712000000000000000e+03,7.300000190734863281e+00,3.799999952316284180e+00,4.117975738182622081e-09,1.212480693624229389e-08,1.195568799972534180e+00,-1.761935465037822723e-02,-1.808434911072254181e-02
7.713000000000000000e+03,7.400000095367431641e+00,3.799999952316284180e+00,4.175158441199755543e-09,1.247339387333568084e-08,1.195583581924438477e+00,-1.750627718865871429e-02,-1.821797899901866913e-02
7.714000000000000000e+03,7.500000000000000000e+00,3.799999952316284180e+00,4.232340256038469306e-09,1.282672990043920436e-08,1.195598006248474121e+00,-1.740201190114021301e-02,-1.833939179778099060e-02
7.715000000000000000e+03,7.599999904632568359e+00,3.799999952316284180e+00,4.289521182698763369e-09,1.318481590573128415e-08,1.195612192153930664e+00,-1.730607636272907257e-02,-1.844938658177852631e-02
7.716000000000000000e+03,7.699999809265136719e+00,3.799999952316284180e+00,4.346701665269847581e-09,1.354765277739033991e-08,1.195625901222229004e+00,-1.721799187362194061e-02,-1.854880712926387787e-02
7.717000000000000000e+03,7.800000190734863281e+00,3.799999952316284180e+00,4.403882147840931793e-09,1.391524229177321104e-08,1.195639252662658691e+00,-1.713728532195091248e-02,-1.863854378461837769e-02
7.718000000000000000e+03,7.900000095367431641e+00,3.799999952316284180e+00,4.461061742233596306e-09,1.428758178434463844e-08,1.195652127265930176e+00,-1.706349663436412811e-02,-1.871908642351627350e-02
7.719000000000000000e+03,8.000000000000000000e+00,3.799999952316284180e+00,4.518240892537050968e-09,1.466467303146146151e-08,1.195664525032043457e+00,-1.699617877602577209e-02,-1.879142411053180695e-02
7.720000000000000000e+03,8.100000381469726562e+00,3.799999952316284180e+00,4.575420042840505630e-09,1.504651869765893935e-08,1.195676326751708984e+00,-1.693489402532577515e-02,-1.885623857378959656e-02
7.721000000000000000e+03,8.199999809265136719e+00,3.799999952316284180e+00,4.632598304965540592e-09,1.543311434204497345e-08,1.195687532424926758e+00,-1.687922701239585876e-02,-1.891379803419113159e-02
7.722000000000000000e+03,8.300000190734863281e+00,3.799999952316284180e+00,4.689777011179785404e-09,1.582446707004692144e-08,1.195698261260986328e+00,-1.682877540588378906e-02,-1.896533742547035217e-02
7.723000000000000000e+03,8.399999618530273438e+00,3.799999952316284180e+00,4.746954829215610516e-09,1.622057155259426509e-08,1.195708394050598145e+00,-1.678315922617912292e-02,-1.901068724691867828e-02
7.724000000000000000e+03,8.500000000000000000e+00,3.799999952316284180e+00,4.804133091340645478e-09,1.662143134240068321e-08,1.195718050003051758e+00,-1.674200780689716339e-02,-1.905109547078609467e-02
7.725000000000000000e+03,8.600000381469726562e+00,3.799999952316284180e+00,4.861311353465680440e-09,1.702704821582301520e-08,1.195726990699768066e+00,-1.670498214662075043e-02,-1.908650062978267670e-02
7.726000000000000000e+03,8.699999809265136719e+00,3.799999952316284180e+00,4.918488727412295702e-09,1.743741506743390346e-08,1.195735573768615723e+00,-1.667174883186817169e-02,-1.911734975874423981e-02
7.727000000000000000e+03,8.800000190734863281e+00,3.799999952316284180e+00,4.975666989537330664e-09,1.785254077901754499e-08,1.195743441581726074e+00,-1.664200425148010254e-02,-1.914461143314838409e-02
7.728000000000000000e+03,8.899999618530273438e+00,3.799999952316284180e+00,5.032844807573155776e-09,1.827242002150342159e-08,1.195750951766967773e+00,-1.661545783281326294e-02,-1.916793733835220337e-02
7.729000000000000000e+03,9.000000000000000000e+00,3.799999952316284180e+00,5.090022625608980889e-09,1.869705812396205147e-08,1.195757865905761719e+00,-1.659183390438556671e-02,-1.918841525912284851e-02
7.730000000000000000e+03,9.100000381469726562e+00,3.799999952316284180e+00,5.147200887734015851e-09,1.912645331003659521e-08,1.195764422416687012e+00,-1.657088100910186768e-02,-1.920582540333271027e-02
7.731000000000000000e+03,9.199999809265136719e+00,3.799999952316284180e+00,5.204378261680631113e-09,1.956060025065653463e-08,1.195770382881164551e+00,-1.655235886573791504e-02,-1.922046765685081482e-02
7.732000000000000000e+03,9.300000190734863281e+00,3.799999952316284180e+00,5.261556523805666075e-09,1.999950782760606671e-08,1.195775985717773438e+00,-1.653604954481124878e-02,-1.923316717147827148e-02
7.733000000000000000e+03,9.399999618530273438e+00,3.799999952316284180e+00,5.318734341841491187e-09,2.044316893545783387e-08,1.195781111717224121e+00,-1.652174443006515503e-02,-1.924344524741172791e-02
7.734000000000000000e+03,9.500000000000000000e+00,3.799999952316284180e+00,5.375912603966526149e-09,2.089159067963919370e-08,1.195785880088806152e+00,-1.650925539433956146e-02,-1.925226487219333649e-02
7.735000000000000000e+03,9.600000381469726562e+00,3.799999952316284180e+00,5.433090866091561111e-09,2.134477128379330679e-08,1.195790290832519531e+00,-1.649840362370014191e-02,-1.925928518176078796e-02
7.736000000000000000e+03,9.699999809265136719e+00,3.799999952316284180e+00,5.490268684127386223e-09,2.180270364249281556e-08,1.195794343948364258e+00,-1.648902893066406250e-02,-1.926470175385475159e-02
7.737000000000000000e+03,9.800000190734863281e+00,3.799999952316284180e+00,5.547446946252421185e-09,2.226540019023559580e-08,1.195798039436340332e+00,-1.648097857832908630e-02,-1.926923170685768127e-02
7.738000000000000000e+03,9.899999618530273438e+00,3.799999952316284180e+00,5.604624764288246297e-09,2.273284849252377171e-08,1.195801496505737305e+00,-1.647411473095417023e-02,-1.927230693399906158e-02
7.739000000000000000e+03,1.000000000000000000e+01,3.799999952316284180e+00,5.661803470502491109e-09,2.320505920749837969e-08,1.195804595947265625e+00,-1.646831259131431580e-02,-1.927479542791843414e-02
7.740000000000000000e+03,1.010000038146972656e+01,3.799999952316284180e+00,5.718982176716735921e-09,2.368202878244574094e-08,1.195807456970214844e+00,-1.646345667541027069e-02,-1.927628181874752045e-02
7.741000000000000000e+03,1.019999980926513672e+01,3.799999952316284180e+00,5.776160438841770883e-09,2.416375188829533727e-08,1.195809960365295410e+00,-1.645944081246852875e-02,-1.927686668932437897e-02
7.742000000000000000e+03,1.030000019073486328e+01,3.799999952316284180e+00,5.833339145056015695e-09,2.465023740683136566e-08,1.195812344551086426e+00,-1.645616628229618073e-02,-1.927723176777362823e-02
7.743000000000000000e+03,1.039999961853027344e+01,3.799999952316284180e+00,5.890517407181050658e-09,2.514147645626962913e-08,1.195814490318298340e+00,-1.645354926586151123e-02,-1.927669905126094818e-02
7.744000000000000000e+03,1.050000000000000000e+01,3.799999952316284180e+00,5.947696113395295470e-09,2.563747969475116406e-08,1.195816397666931152e+00,-1.645150594413280487e-02,-1.927612163126468658e-02
7.745000000000000000e+03,1.060000038146972656e+01,3.799999952316284180e+00,6.004875263698750132e-09,2.613824179320545227e-08,1.195818066596984863e+00,-1.644996739923954010e-02,-1.927499659359455109e-02
7.746000000000000000e+03,1.069999980926513672e+01,3.799999952316284180e+00,6.062053525823785094e-09,2.664375742256197555e-08,1.195819616317749023e+00,-1.644886657595634460e-02,-1.927338726818561554e-02
7.747000000000000000e+03,1.080000019073486328e+01,3.799999952316284180e+00,6.119232676127239756e-09,2.715403724096177029e-08,1.195821046829223633e+00,-1.644814573228359222e-02,-1.927192695438861847e-02
7.748000000000000000e+03,1.089999961853027344e+01,3.799999952316284180e+00,6.176411382341484568e-09,2.766906881390696071e-08,1.195822238922119141e+00,-1.644775271415710449e-02,-1.926989853382110596e-02
7.749000000000000000e+03,1.100000000000000000e+01,3.799999952316284180e+00,6.233590532644939231e-09,2.818886635225226200e-08,1.195823431015014648e+00,-1.644763723015785217e-02,-1.926811225712299347e-02
7.750000000000000000e+03,1.110000038146972656e+01,3.799999952316284180e+00,6.290769682948393893e-09,2.871342097421347717e-08,1.195824384689331055e+00,-1.644776016473770142e-02,-1.926603354513645172e-02
7.751000000000000000e+03,1.119999980926513672e+01,3.799999952316284180e+00,6.347948389162638705e-09,2.924273090343376680e-08,1.195825219154357910e+00,-1.644808240234851837e-02,-1.926369406282901764e-02
7.752000000000000000e+03,1.130000019073486328e+01,3.799999952316284180e+00,6.405127539466093367e-09,2.977680502169732790e-08,1.195826053619384766e+00,-1.644857041537761688e-02,-1.926169730722904205e-02
7.753000000000000000e+03,1.139999961853027344e+01,3.799999952316284180e+00,6.462306245680338179e-09,3.031563267086312408e-08,1.195826649665832520e+00,-1.644919440150260925e-02,-1.925930194556713104e-02
7.754000000000000000e+03,1.150000000000000000e+01,3.799999952316284180e+00,6.519485840073002691e-09,3.085922273271535232e-08,1.195827245712280273e+00,-1.644992828369140625e-02,-1.925729773938655853e-02
7.755000000000000000e+03,1.160000038146972656e+01,3.799999952316284180e+00,6.576664990376457354e-09,3.140757343089717324e-08,1.195827841758728027e+00,-1.645074784755706787e-02,-1.925512216985225677e-02
7.756000000000000000e+03,1.169999980926513672e+01,3.799999952316284180e+00,6.633844140679912016e-09,3.196067765998122923e-08,1.195828318595886230e+00,-1.645163446664810181e-02,-1.925279386341571808e-02
7.757000000000000000e+03,1.180000019073486328e+01,3.799999952316284180e+00,6.691023290983366678e-09,3.251854607810855669e-08,1.195828676223754883e+00,-1.645256951451301575e-02,-1.925089769065380096e-02
7.758000000000000000e+03,1.189999961853027344e+01,3.799999952316284180e+00,6.748202441286821340e-09,3.308116802713811921e-08,1.195829033851623535e+00,-1.645353808999061584e-02,-1.924867928028106689e-02
7.759000000000000000e+03,1.200000000000000000e+01,3.799999952316284180e+00,6.805382035679485853e-09,3.364855416521095322e-08,1.195829272270202637e+00,-1.645452715456485748e-02,-1.924691163003444672e-02
7.760000000000000000e+03,1.210000038146972656e+01,3.799999952316284180e+00,6.862561630072150365e-09,3.422070093961337989e-08,1.195829510688781738e+00,-1.645552366971969604e-02,-1.924502477049827576e-02
7.761000000000000000e+03,1.219999980926513672e+01,3.799999952316284180e+00,6.919740780375605027e-09,3.479760124491804163e-08,1.195829749107360840e+00,-1.645652018487453461e-02,-1.924302428960800171e-02
7.762000000000000000e+03,1.230000019073486328e+01,3.799999952316284180e+00,6.976920374768269539e-09,3.537926218655229604e-08,1.195829868316650391e+00,-1.645750738680362701e-02,-1.924148947000503540e-02
7.763000000000000000e+03,1.239999961853027344e+01,3.799999952316284180e+00,7.034099080982514351e-09,3.596568021180246433e-08,1.195829987525939941e+00,-1.645847968757152557e-02,-1.923965476453304291e-02
7.764000000000000000e+03,1.250000000000000000e+01,3.799999952316284180e+00,7.091279119464388714e-09,3.655686242609590408e-08,1.195830106735229492e+00,-1.645942963659763336e-02,-1.923828572034835815e-02
7.765000000000000000e+03,1.260000038146972656e+01,3.799999952316284180e+00,7.148458713857053226e-09,3.715280527671893651e-08,1.195830225944519043e+00,-1.646035164594650269e-02,-1.923681050539016724e-02
7.766000000000000000e+03,1.269999980926513672e+01,3.799999952316284180e+00,7.205637864160507888e-09,3.775349810553052521e-08,1.195830345153808594e+00,-1.646124571561813354e-02,-1.923522539436817169e-02
7.767000000000000000e+03,1.280000019073486328e+01,3.799999952316284180e+00,7.262817458553172401e-09,3.835895867609906418e-08,1.195830345153808594e+00,-1.646210625767707825e-02,-1.923410594463348389e-02
7.768000000000000000e+03,1.289999961853027344e+01,3.799999952316284180e+00,7.319996608856627063e-09,3.896917277756983822e-08,1.195830345153808594e+00,-1.646293327212333679e-02,-1.923268474638462067e-02
7.769000000000000000e+03,1.300000000000000000e+01,3.799999952316284180e+00,7.377176203249291575e-09,3.958415106808388373e-08,1.195830464363098145e+00,-1.646372303366661072e-02,-1.923172548413276672e-02
7.770000000000000000e+03,1.310000038146972656e+01,3.799999952316284180e+00,7.434356241731165937e-09,4.020388644221384311e-08,1.195830464363098145e+00,-1.646447367966175079e-02,-1.923064887523651123e-02
7.771000000000000000e+03,1.319999980926513672e+01,3.799999952316284180e+00,7.491535392034620600e-09,4.082837889995971636e-08,1.195830464363098145e+00,-1.646518707275390625e-02,-1.922945305705070496e-02
7.772000000000000000e+03,1.330000019073486328e+01,3.799999952316284180e+00,7.548714542338075262e-09,4.145763199403518229e-08,1.195830464363098145e+00,-1.646586135029792786e-02,-1.922871172428131104e-02
7.773000000000000000e+03,1.339999961853027344e+01,3.799999952316284180e+00,7.605894580819949624e-09,4.209164217172656208e-08,1.195830464363098145e+00,-1.646649651229381561e-02,-1.922765374183654785e-02
7.774000000000000000e+03,1.350000000000000000e+01,3.799999952316284180e+00,7.663073731123404286e-09,4.273041653846121335e-08,1.195830345153808594e+00,-1.646709255874156952e-02,-1.922704093158245087e-02
7.775000000000000000e+03,1.360000038146972656e+01,3.799999952316284180e+00,7.720253769605278649e-09,4.337394798881177849e-08,1.195830345153808594e+00,-1.646764948964118958e-02,-1.922629773616790771e-02
7.776000000000000000e+03,1.369999980926513672e+01,3.799999952316284180e+00,7.777432919908733311e-09,4.402223297006457869e-08,1.195830345153808594e+00,-1.646816916763782501e-02,-1.922541856765747070e-02
7.777000000000000000e+03,1.380000019073486328e+01,3.799999952316284180e+00,7.834612958390607673e-09,4.467528569307432917e-08,1.195830345153808594e+00,-1.646864973008632660e-02,-1.922497712075710297e-02
7.778000000000000000e+03,1.389999961853027344e+01,3.799999952316284180e+00,7.891792108694062335e-09,4.533308839427263592e-08,1.195830345153808594e+00,-1.646909117698669434e-02,-1.922420039772987366e-02
7.779000000000000000e+03,1.400000000000000000e+01,3.799999952316284180e+00,7.948972147175936698e-09,4.599565883722789295e-08,1.195830345153808594e+00,-1.646949537098407745e-02,-1.922385394573211670e-02
7.780000000000000000e+03,1.410000038146972656e+01,3.799999952316284180e+00,8.006151297479391360e-09,4.666298636379906384e-08,1.195830345153808594e+00,-1.646986044943332672e-02,-1.922335661947727203e-02
7.781000000000000000e+03,1.419999980926513672e+01,3.799999952316284180e+00,8.063330447782846022e-09,4.733506742127246980e-08,1.195830225944519043e+00,-1.647018827497959137e-02,-1.922270655632019043e-02
7.782000000000000000e+03,1.430000019073486328e+01,3.799999952316284180e+00,8.120510486264720384e-09,4.801191622050282604e-08,1.195830225944519043e+00,-1.647047512233257294e-02,-1.922247558832168579e-02
7.783000000000000000e+03,1.439999961853027344e+01,3.799999952316284180e+00,8.177689636568175047e-09,4.869351499792173854e-08,1.195830225944519043e+00,-1.647072099149227142e-02,-1.922189071774482727e-02
7.784000000000000000e+03,1.450000000000000000e+01,3.799999952316284180e+00,8.234869675050049409e-09,4.937987796438392252e-08,1.195830225944519043e+00,-1.647092401981353760e-02,-1.922171935439109802e-02
7.785000000000000000e+03,1.460000038146972656e+01,3.799999952316284180e+00,8.292049713531923771e-09,5.007100511988937797e-08,1.195830225944519043e+00,-1.647108234465122223e-02,-1.922137662768363953e-02
7.786000000000000000e+03,1.469999980926513672e+01,3.799999952316284180e+00,8.349228863835378434e-09,5.076687870086971088e-08,1.195830225944519043e+00,-1.647119224071502686e-02,-1.922086253762245178e-02
7.787000000000000000e+03,1.480000019073486328e+01,3.799999952316284180e+00,8.406408902317252796e-09,5.146752357632067287e-08,1.195830106735229492e+00,-1.647124998271465302e-02,-1.922074891626834869e-02
7.788000000000000000e+03,1.489999961853027344e+01,3.799999952316284180e+00,8.463588052620707458e-09,5.217291842996019113e-08,1.195830106735229492e+00,-1.647125184535980225e-02,-1.922026090323925018e-02
7.789000000000000000e+03,1.500000000000000000e+01,3.799999952316284180e+00,8.520768091102581820e-09,5.288307747264298087e-08,1.195830106735229492e+00,-1.647119037806987762e-02,-1.922016404569149017e-02
7.790000000000000000e+03,1.510000038146972656e+01,3.799999952316284180e+00,8.577947241406036483e-09,5.359799715165536327e-08,1.195829987525939941e+00,-1.647105999290943146e-02,-1.921987533569335938e-02
7.791000000000000000e+03,1.519999980926513672e+01,3.799999952316284180e+00,8.635126391709491145e-09,5.431767036156998074e-08,1.195829987525939941e+00,-1.647085137665271759e-02,-1.921939104795455933e-02
7.792000000000000000e+03,1.530000019073486328e+01,3.799999952316284180e+00,8.692306430191365507e-09,5.504210776052786969e-08,1.195829868316650391e+00,-1.647055521607398987e-02,-1.921928115189075470e-02
7.793000000000000000e+03,1.539999961853027344e+01,3.799999952316284180e+00,8.749485580494820169e-09,5.577129869038799370e-08,1.195829749107360840e+00,-1.647016033530235291e-02,-1.921877264976501465e-02
7.794000000000000000e+03,1.550000000000000000e+01,3.799999952316284180e+00,8.806665618976694532e-09,5.650525380929138919e-08,1.195829629898071289e+00,-1.646964997053146362e-02,-1.921862363815307617e-02
7.795000000000000000e+03,1.560000038146972656e+01,3.799999952316284180e+00,8.863845657458568894e-09,5.724396956452437735e-08,1.195829391479492188e+00,-1.646901108324527740e-02,-1.921825297176837921e-02
7.796000000000000000e+03,1.569999980926513672e+01,3.799999952316284180e+00,8.921024807762023556e-09,5.798743529794592177e-08,1.195829153060913086e+00,-1.646822504699230194e-02,-1.921765320003032684e-02
7.797000000000000000e+03,1.580000019073486328e+01,3.799999952316284180e+00,8.978203958065478218e-09,5.873567232583809528e-08,1.195828795433044434e+00,-1.646726951003074646e-02,-1.921738870441913605e-02
7.798000000000000000e+03,1.589999961853027344e+01,3.799999952316284180e+00,9.035383108368932881e-09,5.948865577920514625e-08,1.195828318595886230e+00,-1.646612025797367096e-02,-1.921668462455272675e-02
7.799000000000000000e+03,1.600000000000000000e+01,3.799999952316284180e+00,9.092563146850807243e-09,6.024640697432914749e-08,1.195827841758728027e+00,-1.646475121378898621e-02,-1.921629533171653748e-02
7.800000000000000000e+03,1.610000038146972656e+01,3.799999952316284180e+00,9.149742297154261905e-09,6.100891880578274140e-08,1.195827126502990723e+00,-1.646313071250915527e-02,-1.921563595533370972e-02
7.801000000000000000e+03,1.620000076293945312e+01,3.799999952316284180e+00,9.206922335636136268e-09,6.177619127356592799e-08,1.195826292037963867e+00,-1.646122336387634277e-02,-1.921488530933856964e-02
7.802000000000000000e+03,1.629999923706054688e+01,3.799999952316284180e+00,9.264100597761171230e-09,6.254820306139663444e-08,1.195825338363647461e+00,-1.645899191498756409e-02,-1.921364665031433105e-02
7.803000000000000000e+03,1.639999961853027344e+01,3.799999952316284180e+00,9.321279748064625892e-09,6.332498969641164877e-08,1.195824027061462402e+00,-1.645638979971408844e-02,-1.921305432915687561e-02
7.804000000000000000e+03,1.650000000000000000e+01,3.799999952316284180e+00,9.378458898368080554e-09,6.410653696775625576e-08,1.195822477340698242e+00,-1.645336858928203583e-02,-1.921194605529308319e-02
7.805000000000000000e+03,1.660000038146972656e+01,3.799999952316284180e+00,9.435638048671535216e-09,6.489284487543045543e-08,1.195820569992065430e+00,-1.644987985491752625e-02,-1.921068690717220306e-02
7.806000000000000000e+03,1.670000076293945312e+01,3.799999952316284180e+00,9.492816310796570178e-09,6.568391341943424777e-08,1.195818305015563965e+00,-1.644586026668548584e-02,-1.920926198363304138e-02
7.807000000000000000e+03,1.679999923706054688e+01,3.799999952316284180e+00,9.549994572921605140e-09,6.647972128348555998e-08,1.195815563201904297e+00,-1.644124835729598999e-02,-1.920727454125881195e-02
7.808000000000000000e+03,1.689999961853027344e+01,3.799999952316284180e+00,9.607172835046640103e-09,6.728030399472118006e-08,1.195812344551086426e+00,-1.643597893416881561e-02,-1.920586265623569489e-02
7.809000000000000000e+03,1.700000000000000000e+01,3.799999952316284180e+00,9.664351097171675065e-09,6.808564734228639281e-08,1.195808410644531250e+00,-1.642997935414314270e-02,-1.920386031270027161e-02
7.810000000000000000e+03,1.710000038146972656e+01,3.799999952316284180e+00,9.721528471118290327e-09,6.889575132618119824e-08,1.195803642272949219e+00,-1.642317511141300201e-02,-1.920164935290813446e-02
7.811000000000000000e+03,1.720000076293945312e+01,3.799999952316284180e+00,9.778706733243325289e-09,6.971061594640559633e-08,1.195798039436340332e+00,-1.641549170017242432e-02,-1.919922418892383575e-02
7.812000000000000000e+03,1.729999923706054688e+01,3.799999952316284180e+00,9.835882330833101150e-09,7.053021988667751430e-08,1.195791363716125488e+00,-1.640685275197029114e-02,-1.919621042907238007e-02
7.813000000000000000e+03,1.739999961853027344e+01,3.799999952316284180e+00,9.893058816601296712e-09,7.135459867413374013e-08,1.195783495903015137e+00,-1.639718748629093170e-02,-1.919378153979778290e-02
7.814000000000000000e+03,1.750000000000000000e+01,3.799999952316284180e+00,9.950234414191072574e-09,7.218373809791955864e-08,1.195774197578430176e+00,-1.638643071055412292e-02,-1.919081620872020721e-02
7.815000000000000000e+03,1.760000038146972656e+01,3.799999952316284180e+00,1.000741001178084844e-08,7.301763105260761222e-08,1.195763230323791504e+00,-1.637453585863113403e-02,-1.918775774538516998e-02
7.816000000000000000e+03,1.770000076293945312e+01,3.799999952316284180e+00,1.006458472119220460e-08,7.385629174905261607e-08,1.195750236511230469e+00,-1.636147312819957733e-02,-1.918469183146953583e-02
7.817000000000000000e+03,1.779999923706054688e+01,3.799999952316284180e+00,1.012175676606830166e-08,7.469969176554513979e-08,1.195735216140747070e+00,-1.634724624454975128e-02,-1.918135397136211395e-02
7.818000000000000000e+03,1.789999961853027344e+01,3.799999952316284180e+00,1.017892969912281842e-08,7.554785952379461378e-08,1.195717573165893555e+00,-1.633190922439098358e-02,-1.917906664311885834e-02
7.819000000000000000e+03,1.800000000000000000e+01,3.799999952316284180e+00,1.023610085582049578e-08,7.640079502380103804e-08,1.195697069168090820e+00,-1.631557755172252655e-02,-1.917689852416515350e-02
7.820000000000000000e+03,1.810000038146972656e+01,3.799999952316284180e+00,1.029327023616133374e-08,7.725849116013705498e-08,1.195673227310180664e+00,-1.629846543073654175e-02,-1.917553693056106567e-02
7.821000000000000000e+03,1.820000076293945312e+01,3.799999952316284180e+00,1.035043872832375200e-08,7.812094082737530698e-08,1.195645689964294434e+00,-1.628090441226959229e-02,-1.917535811662673950e-02
7.822000000000000000e+03,1.829999923706054688e+01,3.799999952316284180e+00,1.040760455595091116e-08,7.898812981466107885e-08,1.195614099502563477e+00,-1.626339927315711975e-02,-1.917646266520023346e-02
7.823000000000000000e+03,1.839999961853027344e+01,3.799999952316284180e+00,1.046476860722123092e-08,7.986009364913115860e-08,1.195578098297119141e+00,-1.624667830765247345e-02,-1.918059587478637695e-02
7.824000000000000000e+03,1.850000000000000000e+01,3.799999952316284180e+00,1.052193088213471128e-08,8.073681811993083102e-08,1.195537090301513672e+00,-1.623175665736198425e-02,-1.918731071054935455e-02
7.825000000000000000e+03,1.860000038146972656e+01,3.799999952316284180e+00,1.057909138069135224e-08,8.161830322706009611e-08,1.195491194725036621e+00,-1.622001454234123230e-02,-1.919780485332012177e-02
7.826000000000000000e+03,1.870000076293945312e+01,3.799999952316284180e+00,1.063624921471273410e-08,8.250454186509159626e-08,1.195440173149108887e+00,-1.621329039335250854e-02,-1.921296678483486176e-02
7.827000000000000000e+03,1.879999923706054688e+01,3.799999952316284180e+00,1.069340260784201746e-08,8.339551271774325869e-08,1.195384263992309570e+00,-1.621395908296108246e-02,-1.923330500721931458e-02
7.828000000000000000e+03,1.889999961853027344e+01,3.799999952316284180e+00,1.075055511279288112e-08,8.429126552300658659e-08,1.195324420928955078e+00,-1.622498594224452972e-02,-1.926074363291263580e-02
7.829000000000000000e+03,1.900000000000000000e+01,3.799999952316284180e+00,1.080770495320848568e-08,8.519177185917214956e-08,1.195261597633361816e+00,-1.624993979930877686e-02,-1.929457858204841614e-02
7.830000000000000000e+03,1.910000038146972656e+01,3.799999952316284180e+00,1.086485212908883113e-08,8.609703883166730520e-08,1.195198059082031250e+00,-1.629287935793399811e-02,-1.933502964675426483e-02
7.831000000000000000e+03,1.920000076293945312e+01,3.799999952316284180e+00,1.092199664043391749e-08,8.700705222963733831e-08,1.195136427879333496e+00,-1.635806448757648468e-02,-1.938094012439250946e-02
7.832000000000000000e+03,1.929999923706054688e+01,3.799999952316284180e+00,1.097913937542216445e-08,8.792181205308224889e-08,1.195080518722534180e+00,-1.644942536950111389e-02,-1.942934840917587280e-02
7.833000000000000000e+03,1.939999961853027344e+01,3.799999952316284180e+00,1.103628299858883111e-08,8.884133961828410975e-08,1.195034146308898926e+00,-1.656976900994777679e-02,-1.947703398764133453e-02
7.834000000000000000e+03,1.950000000000000000e+01,3.799999952316284180e+00,1.109342662175549776e-08,8.976562781981556327e-08,1.195001244544982910e+00,-1.671975292265415192e-02,-1.951653510332107544e-02
7.835000000000000000e+03,1.960000038146972656e+01,3.799999952316284180e+00,1.115057202127900382e-08,9.069466955224925186e-08,1.194984436035156250e+00,-1.689684763550758362e-02,-1.954026520252227783e-02
7.836000000000000000e+03,1.970000076293945312e+01,3.799999952316284180e+00,1.120772097351618868e-08,9.162847902643989073e-08,1.194984197616577148e+00,-1.709462143480777740e-02,-1.953951455652713776e-02
7.837000000000000000e+03,1.979999923706054688e+01,3.799999952316284180e+00,1.126487170211021294e-08,9.256703492610540707e-08,1.194997906684875488e+00,-1.730271428823471069e-02,-1.950594969093799591e-02
7.838000000000000000e+03,1.989999961853027344e+01,3.799999952316284180e+00,1.132202775977475540e-08,9.351037988380994648e-08,1.195019364356994629e+00,-1.750786416232585907e-02,-1.943541876971721649e-02
7.839000000000000000e+03,2.000000000000000000e+01,3.799999952316284180e+00,1.137918737015297665e-08,9.445849258327143616e-08,1.195039629936218262e+00,-1.769584044814109802e-02,-1.932580955326557159e-02
7.840000000000000000e+03,0.000000000000000000e+00,3.900000095367431641e+00,3.676171435984196673e-38,-1.745219146424056925e-40,1.068909287452697754e+00,3.206727802753448486e-01,-2.923841774463653564e-01
7.841000000000000000e+03,1.000000014901161194e-01,3.900000095367431641e+00,4.631940317412208685e-11,-3.619994581871566197e-11,1.065299034118652344e+00,3.086383938789367676e-01,-3.227928578853607178e-01
7.842000000000000000e+03,2.000000029802322388e-01,3.900000095367431641e+00,9.295936242992297593e-11,-6.574476379972438167e-11,1.068185925483703613e+00,2.958228290081024170e-01,-3.000631630420684814e-01
7.843000000000000000e+03,3.000000119209289551e-01,3.900000095367431641e+00,1.399866195184173989e-10,-8.876952645175961720e-11,1.071774721145629883e+00,2.806750237941741943e-01,-2.789302766323089600e-01
7.844000000000000000e+03,4.000000059604644775e-01,3.900000095367431641e+00,1.874556482261979795e-10,-1.053491877067713745e-10,1.075935244560241699e+00,2.636181116104125977e-01,-2.588314414024353027e-01
7.845000000000000000e+03,5.000000000000000000e-01,3.900000095367431641e+00,2.354008377114524819e-10,-1.155135292973952232e-10,1.080408096313476562e+00,2.451973408460617065e-01,-2.393683344125747681e-01
7.846000000000000000e+03,6.000000238418579102e-01,3.900000095367431641e+00,2.838337620492126234e-10,-1.192645288083937771e-10,1.084887504577636719e+00,2.259879708290100098e-01,-2.203248590230941772e-01
7.847000000000000000e+03,6.999999880790710449e-01,3.900000095367431641e+00,3.327449704659812824e-10,-1.165925411772406051e-10,1.089092850685119629e+00,2.065240889787673950e-01,-2.016448080539703369e-01
7.848000000000000000e+03,8.000000119209289551e-01,3.900000095367431641e+00,3.821086502764359238e-10,-1.074888650309802074e-10,1.092813849449157715e+00,1.872559785842895508e-01,-1.833866834640502930e-01
7.849000000000000000e+03,8.999999761581420898e-01,3.900000095367431641e+00,4.318879698317346083e-10,-9.195391670324681854e-11,1.095926165580749512e+00,1.685336381196975708e-01,-1.656736731529235840e-01
7.850000000000000000e+03,1.000000000000000000e+00,3.900000095367431641e+00,4.820405186123366548e-10,-7.000139357060675138e-11,1.098385572433471680e+00,1.506089121103286743e-01,-1.486514061689376831e-01
7.851000000000000000e+03,1.100000023841857910e+00,3.900000095367431641e+00,5.325221374974375976e-10,-4.165954387014281224e-11,1.100209355354309082e+00,1.336482465267181396e-01,-1.324580609798431396e-01
7.852000000000000000e+03,1.200000047683715820e+00,3.900000095367431641e+00,5.832903049451942934e-10,-6.970279822077207754e-12,1.101455450057983398e+00,1.177493259310722351e-01,-1.172075644135475159e-01
7.853000000000000000e+03,1.299999952316284180e+00,3.900000095367431641e+00,6.343053304824763927e-10,3.401258441559917856e-11,1.102203607559204102e+00,1.029575988650321960e-01,-1.029821932315826416e-01
7.854000000000000000e+03,1.399999976158142090e+00,3.900000095367431641e+00,6.855318535059495844e-10,8.122590794412687387e-11,1.102540969848632812e+00,8.928068727254867554e-02,-8.983211964368820190e-02
7.855000000000000000e+03,1.500000000000000000e+00,3.900000095367431641e+00,7.369386767486219014e-10,1.345992622914238268e-10,1.102552890777587891e+00,7.669996470212936401e-02,-7.777810841798782349e-02
7.856000000000000000e+03,1.600000023841857910e+00,3.900000095367431641e+00,7.884988217909949526e-10,1.940573951531021635e-10,1.102317333221435547e+00,6.517930328845977783e-02,-6.681640446186065674e-02
7.857000000000000000e+03,1.700000047683715820e+00,3.900000095367431641e+00,8.401893070164589972e-10,2.595220705003953299e-10,1.101901650428771973e+00,5.467149987816810608e-02,-5.692353844642639160e-02
7.858000000000000000e+03,1.799999952316284180e+00,3.900000095367431641e+00,8.919905369886294011e-10,3.309136020757108554e-10,1.101362705230712891e+00,4.512287676334381104e-02,-4.806110635399818420e-02
7.859000000000000000e+03,1.899999976158142090e+00,3.900000095367431641e+00,9.438859693844392496e-10,4.081526228105758491e-10,1.100746512413024902e+00,3.647638857364654541e-02,-4.017999768257141113e-02
7.860000000000000000e+03,2.000000000000000000e+00,3.900000095367431641e+00,9.958615043714758031e-10,4.911605011592712344e-10,1.100089550018310547e+00,2.867385745048522949e-02,-3.322362527251243591e-02
7.861000000000000000e+03,2.099999904632568359e+00,3.900000095367431641e+00,1.047905429096829266e-09,5.798606039775222598e-10,1.099420070648193359e+00,2.165737375617027283e-02,-2.713096886873245239e-02
7.862000000000000000e+03,2.200000047683715820e+00,3.900000095367431641e+00,1.100007751553278013e-09,6.741792124564938149e-10,1.098759174346923828e+00,1.537020411342382431e-02,-2.183879911899566650e-02
7.863000000000000000e+03,2.299999952316284180e+00,3.900000095367431641e+00,1.152159923023532428e-09,7.740448837445512709e-10,1.098122358322143555e+00,9.757498279213905334e-03,-1.728304848074913025e-02
7.864000000000000000e+03,2.400000095367431641e+00,3.900000095367431641e+00,1.204354727057932450e-09,8.793905048598560370e-10,1.097520232200622559e+00,4.766531288623809814e-03,-1.340075582265853882e-02
7.865000000000000000e+03,2.500000000000000000e+00,3.900000095367431641e+00,1.256585946407540177e-09,9.901514053112236979e-10,1.096960186958312988e+00,3.470552328508347273e-04,-1.013026945292949677e-02
7.866000000000000000e+03,2.599999904632568359e+00,3.900000095367431641e+00,1.308848252001837409e-09,1.106267522033022033e-09,1.096446037292480469e+00,-3.548678709194064140e-03,-7.412700913846492767e-03
7.867000000000000000e+03,2.700000047683715820e+00,3.900000095367431641e+00,1.361137424993330569e-09,1.227682511206751315e-09,1.095980167388916016e+00,-6.965817417949438095e-03,-5.191899836063385010e-03
7.868000000000000000e+03,2.799999952316284180e+00,3.900000095367431641e+00,1.413449135512223620e-09,1.354342971104927074e-09,1.095562934875488281e+00,-9.946877136826515198e-03,-3.414793638512492180e-03
7.869000000000000000e+03,2.900000095367431641e+00,3.900000095367431641e+00,1.465780274934047611e-09,1.486200384981373190e-09,1.095193386077880859e+00,-1.253182440996170044e-02,-2.032067859545350075e-03
7.870000000000000000e+03,3.000000000000000000e+00,3.900000095367431641e+00,1.518127734634333592e-09,1.623208345513660333e-09,1.094869971275329590e+00,-1.475805044174194336e-02,-9.974937420338392258e-04
7.871000000000000000e+03,3.099999904632568359e+00,3.900000095367431641e+00,1.570489072122427388e-09,1.765325219338365059e-09,1.094590544700622559e+00,-1.666048727929592133e-02,-2.686984662432223558e-04
7.872000000000000000e+03,3.200000047683715820e+00,3.900000095367431641e+00,1.622862177974582210e-09,1.912512592738835338e-09,1.094352245330810547e+00,-1.827164553105831146e-02,1.933999010361731052e-04
7.873000000000000000e+03,3.299999952316284180e+00,3.900000095367431641e+00,1.675244942767051270e-09,2.064734383466770851e-09,1.094152450561523438e+00,-1.962168700993061066e-02,4.246834141667932272e-04
7.874000000000000000e+03,3.400000095367431641e+00,3.900000095367431641e+00,1.727635923209902558e-09,2.221958395054457469e-09,1.093988060951232910e+00,-2.073853462934494019e-02,4.574618069455027580e-04
7.875000000000000000e+03,3.500000000000000000e+00,3.900000095367431641e+00,1.780033564990901596e-09,2.384154429435625389e-09,1.093856096267700195e+00,-2.164794504642486572e-02,3.213835589122027159e-04
7.876000000000000000e+03,3.599999904632568359e+00,3.900000095367431641e+00,1.832436646864721297e-09,2.551296063302288530e-09,1.093753695487976074e+00,-2.237361110746860504e-02,4.284575697965919971e-05
7.877000000000000000e+03,3.700000047683715820e+00,3.900000095367431641e+00,1.884844280652941961e-09,2.723359093792510066e-09,1.093677997589111328e+00,-2.293726056814193726e-02,-3.543247003108263016e-04
7.878000000000000000e+03,3.799999952316284180e+00,3.900000095367431641e+00,1.937255245110236501e-09,2.900320428267377793e-09,1.093626141548156738e+00,-2.335875295102596283e-02,-8.486890001222491264e-04
7.879000000000000000e+03,3.900000095367431641e+00,3.900000095367431641e+00,1.989669318191999992e-09,3.082161192935473082e-09,1.093595743179321289e+00,-2.365618757903575897e-02,-1.421517576090991497e-03
7.880000000000000000e+03,4.000000000000000000e+00,3.900000095367431641e+00,2.042085389675207807e-09,3.268862736049982232e-09,1.093584179878234863e+00,-2.384600043296813965e-02,-2.055857796221971512e-03
7.881000000000000000e+03,4.099999904632568359e+00,3.900000095367431641e+00,2.094503015470650098e-09,3.460409514488560490e-09,1.093589305877685547e+00,-2.394307777285575867e-02,-2.737109083682298660e-03
7.882000000000000000e+03,4.199999809265136719e+00,3.900000095367431641e+00,2.146921973533721939e-09,3.656786873307282804e-09,1.093608856201171875e+00,-2.396083995699882507e-02,-3.452308243140578270e-03
7.883000000000000000e+03,4.300000190734863281e+00,3.900000095367431641e+00,2.199341819775213480e-09,3.857983266186693072e-09,1.093640923500061035e+00,-2.391136251389980316e-02,-4.190302919596433640e-03
7.884000000000000000e+03,4.400000095367431641e+00,3.900000095367431641e+00,2.251762110105914871e-09,4.063985592495100718e-09,1.093683719635009766e+00,-2.380545064806938171e-02,-4.941089078783988953e-03
7.885000000000000000e+03,4.500000000000000000e+00,3.900000095367431641e+00,2.304182622481221188e-09,4.274784970448308741e-09,1.093735575675964355e+00,-2.365275658667087555e-02,-5.696591921150684357e-03
7.886000000000000000e+03,4.599999904632568359e+00,3.900000095367431641e+00,2.356603134856527504e-09,4.490372518262120138e-09,1.093794941902160645e+00,-2.346185036003589630e-02,-6.449612323194742203e-03
7.887000000000000000e+03,4.699999809265136719e+00,3.900000095367431641e+00,2.409023647231833820e-09,4.710740686419967460e-09,1.093860507011413574e+00,-2.324032038450241089e-02,-7.194150239229202271e-03
7.888000000000000000e+03,4.800000190734863281e+00,3.900000095367431641e+00,2.461444381651745061e-09,4.935883701762122655e-09,1.093931078910827637e+00,-2.299484796822071075e-02,-7.925289683043956757e-03
7.889000000000000000e+03,4.900000095367431641e+00,3.900000095367431641e+00,2.513864449937841528e-09,5.165793570682808422e-09,1.094005346298217773e+00,-2.273129485547542572e-02,-8.638635277748107910e-03
7.890000000000000000e+03,5.000000000000000000e+00,3.900000095367431641e+00,2.566284518223937994e-09,5.400467184557555811e-09,1.094082474708557129e+00,-2.245477028191089630e-02,-9.331124834716320038e-03
7.891000000000000000e+03,5.099999904632568359e+00,3.900000095367431641e+00,2.618703920376219685e-09,5.639899658405056471e-09,1.094161510467529297e+00,-2.216970361769199371e-02,-1.000003144145011902e-02
7.892000000000000000e+03,5.199999809265136719e+00,3.900000095367431641e+00,2.671123322528501376e-09,5.884087883600841451e-09,1.094241738319396973e+00,-2.187990769743919373e-02,-1.064332388341426849e-02
7.893000000000000000e+03,5.300000190734863281e+00,3.900000095367431641e+00,2.723542502636178142e-09,6.133029639698861502e-09,1.094322323799133301e+00,-2.158864587545394897e-02,-1.125959493219852448e-02
7.894000000000000000e+03,5.400000095367431641e+00,3.900000095367431641e+00,2.775961016610040133e-09,6.386720041717808272e-09,1.094402670860290527e+00,-2.129868231713771820e-02,-1.184753514826297760e-02
7.895000000000000000e+03,5.500000000000000000e+00,3.900000095367431641e+00,2.828379530583902124e-09,6.645158645568471911e-09,1.094482421875000000e+00,-2.101233974099159241e-02,-1.240678410977125168e-02
7.896000000000000000e+03,5.599999904632568359e+00,3.900000095367431641e+00,2.880797600468554265e-09,6.908344118983222870e-09,1.094560980796813965e+00,-2.073154598474502563e-02,-1.293696649372577667e-02
7.897000000000000000e+03,5.699999809265136719e+00,3.900000095367431641e+00,2.933215226263996556e-09,7.176274241516011898e-09,1.094637989997863770e+00,-2.045787312090396881e-02,-1.343808602541685104e-02
7.898000000000000000e+03,5.800000190734863281e+00,3.900000095367431641e+00,2.985633074104043772e-09,7.448950345434468545e-09,1.094712972640991211e+00,-2.019258961081504822e-02,-1.391048636287450790e-02
7.899000000000000000e+03,5.900000095367431641e+00,3.900000095367431641e+00,3.038050699899486062e-09,7.726368878024914011e-09,1.094785928726196289e+00,-1.993668824434280396e-02,-1.435435190796852112e-02
7.900000000000000000e+03,6.000000000000000000e+00,3.900000095367431641e+00,3.090467881605718503e-09,8.008529839287348295e-09,1.094856500625610352e+00,-1.969092525541782379e-02,-1.477058418095111847e-02
7.901000000000000000e+03,6.099999904632568359e+00,3.900000095367431641e+00,3.142885063311950944e-09,8.295434561489400949e-09,1.094924569129943848e+00,-1.945584639906883240e-02,-1.515986770391464233e-02
7.902000000000000000e+03,6.199999809265136719e+00,3.900000095367431641e+00,3.195302022973578460e-09,8.587081268274232571e-09,1.094989895820617676e+00,-1.923181861639022827e-02,-1.552308164536952972e-02
7.903000000000000000e+03,6.300000190734863281e+00,3.900000095367431641e+00,3.247719426724415825e-09,8.883472624177102261e-09,1.095052361488342285e+00,-1.901905611157417297e-02,-1.586128026247024536e-02
7.904000000000000000e+03,6.400000095367431641e+00,3.900000095367431641e+00,3.300136386386043341e-09,9.184605964662750921e-09,1.095112085342407227e+00,-1.881763711571693420e-02,-1.617522165179252625e-02
7.905000000000000000e+03,6.500000000000000000e+00,3.900000095367431641e+00,3.352553346047670857e-09,9.490483066088017949e-09,1.095168948173522949e+00,-1.862753368914127350e-02,-1.646625064313411713e-02
7.906000000000000000e+03,6.599999904632568359e+00,3.900000095367431641e+00,3.404970305709298373e-09,9.801103928452903347e-09,1.095222949981689453e+00,-1.844861544668674469e-02,-1.673538424074649811e-02
7.907000000000000000e+03,6.699999809265136719e+00,3.900000095367431641e+00,3.457387265370925888e-09,1.011646855175740711e-08,1.095273971557617188e+00,-1.828068122267723083e-02,-1.698374561965465546e-02
7.908000000000000000e+03,6.800000190734863281e+00,3.900000095367431641e+00,3.509804669121763254e-09,1.043657960053678835e-08,1.095322251319885254e+00,-1.812345907092094421e-02,-1.721253991127014160e-02
7.909000000000000000e+03,6.900000095367431641e+00,3.900000095367431641e+00,3.562221628783390770e-09,1.076143529843420765e-08,1.095367670059204102e+00,-1.797663606703281403e-02,-1.742261275649070740e-02
7.910000000000000000e+03,7.000000000000000000e+00,3.900000095367431641e+00,3.614638810489623211e-09,1.109103653362808473e-08,1.095410466194152832e+00,-1.783984713256359100e-02,-1.761533506214618683e-02
7.911000000000000000e+03,7.099999904632568359e+00,3.900000095367431641e+00,3.667056214240460577e-09,1.142538419429683927e-08,1.095450520515441895e+00,-1.771270111203193665e-02,-1.779169403016567230e-02
7.912000000000000000e+03,7.199999809265136719e+00,3.900000095367431641e+00,3.719473617991297942e-09,1.176447916861889098e-08,1.095488071441650391e+00,-1.759478822350502014e-02,-1.795274019241333008e-02
7.913000000000000000e+03,7.300000190734863281e+00,3.900000095367431641e+00,3.771891243786740233e-09,1.210832323295107926e-08,1.095523118972778320e+00,-1.748567819595336914e-02,-1.809957623481750488e-02
7.914000000000000000e+03,7.400000095367431641e+00,3.900000095367431641e+00,3.824308869582182524e-09,1.245691461093656471e-08,1.095555782318115234e+00,-1.738493144512176514e-02,-1.823290996253490448e-02
7.915000000000000000e+03,7.500000000000000000e+00,3.900000095367431641e+00,3.876726939466834665e-09,1.281025507893218673e-08,1.095586180686950684e+00,-1.729210652410984039e-02,-1.835395395755767822e-02
7.916000000000000000e+03,7.599999904632568359e+00,3.900000095367431641e+00,3.929144565262276956e-09,1.316834463693794532e-08,1.095614314079284668e+00,-1.720676571130752563e-02,-1.846351660788059235e-02
7.917000000000000000e+03,7.699999809265136719e+00,3.900000095367431641e+00,3.981562635146929097e-09,1.353118506131067988e-08,1.095640420913696289e+00,-1.712846755981445312e-02,-1.856245659291744232e-02
7.918000000000000000e+03,7.800000190734863281e+00,3.900000095367431641e+00,4.033981149120791088e-09,1.389877812840722981e-08,1.095664620399475098e+00,-1.705678552389144897e-02,-1.865167543292045593e-02
7.919000000000000000e+03,7.900000095367431641e+00,3.900000095367431641e+00,4.086399219005443229e-09,1.427112028551391631e-08,1.095686912536621094e+00,-1.699130050837993622e-02,-1.873167231678962708e-02
7.920000000000000000e+03,8.000000000000000000e+00,3.900000095367431641e+00,4.138817732979305219e-09,1.464821419716599848e-08,1.095707416534423828e+00,-1.693160459399223328e-02,-1.880344375967979431e-02
7.921000000000000000e+03,8.100000381469726562e+00,3.900000095367431641e+00,4.191236246953167210e-09,1.503006252789873542e-08,1.095726251602172852e+00,-1.687730476260185242e-02,-1.886768080294132233e-02
7.922000000000000000e+03,8.199999809265136719e+00,3.900000095367431641e+00,4.243654760927029201e-09,1.541665994864160893e-08,1.095743536949157715e+00,-1.682802662253379822e-02,-1.892465725541114807e-02
7.923000000000000000e+03,8.300000190734863281e+00,3.900000095367431641e+00,4.296073718990101042e-09,1.580801445300039632e-08,1.095759391784667969e+00,-1.678340137004852295e-02,-1.897561550140380859e-02
7.924000000000000000e+03,8.399999618530273438e+00,3.900000095367431641e+00,4.348492232963963033e-09,1.620411893554773997e-08,1.095773816108703613e+00,-1.674309000372886658e-02,-1.902038417756557465e-02
7.925000000000000000e+03,8.500000000000000000e+00,3.900000095367431641e+00,4.400911635116244724e-09,1.660498227806783689e-08,1.095787048339843750e+00,-1.670676097273826599e-02,-1.906022429466247559e-02
7.926000000000000000e+03,8.600000381469726562e+00,3.900000095367431641e+00,4.453330593179316566e-09,1.701059915149016888e-08,1.095798969268798828e+00,-1.667410507798194885e-02,-1.909507066011428833e-02
7.927000000000000000e+03,8.699999809265136719e+00,3.900000095367431641e+00,4.505749551242388407e-09,1.742096777945789654e-08,1.095809936523437500e+00,-1.664482429623603821e-02,-1.912537775933742523e-02
7.928000000000000000e+03,8.800000190734863281e+00,3.900000095367431641e+00,4.558169397483879948e-09,1.783609526739837747e-08,1.095819711685180664e+00,-1.661864668130874634e-02,-1.915211044251918793e-02
7.929000000000000000e+03,8.899999618530273438e+00,3.900000095367431641e+00,4.610588355546951789e-09,1.825597450988425408e-08,1.095828652381896973e+00,-1.659530773758888245e-02,-1.917492970824241638e-02
7.930000000000000000e+03,9.000000000000000000e+00,3.900000095367431641e+00,4.663007757699233480e-09,1.868061438869972335e-08,1.095836639404296875e+00,-1.657456718385219574e-02,-1.919491961598396301e-02
7.931000000000000000e+03,9.100000381469726562e+00,3.900000095367431641e+00,4.715427603940725021e-09,1.911000957477426709e-08,1.095843911170959473e+00,-1.655619405210018158e-02,-1.921186223626136780e-02
7.932000000000000000e+03,9.199999809265136719e+00,3.900000095367431641e+00,4.767847006093006712e-09,1.954415651539420651e-08,1.095850348472595215e+00,-1.653997786343097687e-02,-1.922606118023395538e-02
7.933000000000000000e+03,9.300000190734863281e+00,3.900000095367431641e+00,4.820266852334498253e-09,1.998306586870057799e-08,1.095856189727783203e+00,-1.652571931481361389e-02,-1.923833601176738739e-02
7.934000000000000000e+03,9.399999618530273438e+00,3.900000095367431641e+00,4.872686254486779944e-09,2.042672697655234515e-08,1.095861315727233887e+00,-1.651323586702346802e-02,-1.924821361899375916e-02
7.935000000000000000e+03,9.500000000000000000e+00,3.900000095367431641e+00,4.925106544817481335e-09,2.087515049709054438e-08,1.095865964889526367e+00,-1.650235615670681000e-02,-1.925665326416492462e-02
7.936000000000000000e+03,9.600000381469726562e+00,3.900000095367431641e+00,4.977526391058972877e-09,2.132833110124465748e-08,1.095870018005371094e+00,-1.649292372167110443e-02,-1.926331594586372375e-02
7.937000000000000000e+03,9.699999809265136719e+00,3.900000095367431641e+00,5.029946237300464418e-09,2.178626345994416624e-08,1.095873594284057617e+00,-1.648479327559471130e-02,-1.926839724183082581e-02
7.938000000000000000e+03,9.800000190734863281e+00,3.900000095367431641e+00,5.082366527631165809e-09,2.224896000768694648e-08,1.095876812934875488e+00,-1.647783070802688599e-02,-1.927261240780353546e-02
7.939000000000000000e+03,9.899999618530273438e+00,3.900000095367431641e+00,5.134786373872657350e-09,2.271640830997512239e-08,1.095879554748535156e+00,-1.647191308438777924e-02,-1.927539147436618805e-02
7.940000000000000000e+03,1.000000000000000000e+01,3.900000095367431641e+00,5.187206664203358741e-09,2.318861902494973037e-08,1.095881938934326172e+00,-1.646693050861358643e-02,-1.927760615944862366e-02
7.941000000000000000e+03,1.010000038146972656e+01,3.900000095367431641e+00,5.239626954534060133e-09,2.366558859989709163e-08,1.095884084701538086e+00,-1.646277680993080139e-02,-1.927883736789226532e-02
7.942000000000000000e+03,1.019999980926513672e+01,3.900000095367431641e+00,5.292046800775551674e-09,2.414731170574668795e-08,1.095885872840881348e+00,-1.645936071872711182e-02,-1.927918381989002228e-02
7.943000000000000000e+03,1.030000019073486328e+01,3.900000095367431641e+00,5.344467091106253065e-09,2.463379900063955574e-08,1.095887422561645508e+00,-1.645659655332565308e-02,-1.927932724356651306e-02
7.944000000000000000e+03,1.039999961853027344e+01,3.900000095367431641e+00,5.396886937347744606e-09,2.512503805007781921e-08,1.095888733863830566e+00,-1.645440421998500824e-02,-1.927859149873256683e-02
7.945000000000000000e+03,1.050000000000000000e+01,3.900000095367431641e+00,5.449307671767655847e-09,2.562104128855935414e-08,1.095889806747436523e+00,-1.645271480083465576e-02,-1.927782781422138214e-02
7.946000000000000000e+03,1.060000038146972656e+01,3.900000095367431641e+00,5.501727962098357239e-09,2.612180338701364235e-08,1.095890760421752930e+00,-1.645146496593952179e-02,-1.927652768790721893e-02
7.947000000000000000e+03,1.069999980926513672e+01,3.900000095367431641e+00,5.554148252429058630e-09,2.662731901637016563e-08,1.095891475677490234e+00,-1.645059511065483093e-02,-1.927475817501544952e-02
7.948000000000000000e+03,1.080000019073486328e+01,3.900000095367431641e+00,5.606568542759760021e-09,2.713759705841312098e-08,1.095892190933227539e+00,-1.645005680620670319e-02,-1.927315257489681244e-02
7.949000000000000000e+03,1.089999961853027344e+01,3.900000095367431641e+00,5.658988833090461412e-09,2.765263040771515080e-08,1.095892667770385742e+00,-1.644979976117610931e-02,-1.927099004387855530e-02
7.950000000000000000e+03,1.100000000000000000e+01,3.900000095367431641e+00,5.711409123421162803e-09,2.817242616970361269e-08,1.095893025398254395e+00,-1.644978486001491547e-02,-1.926908269524574280e-02
7.951000000000000000e+03,1.110000038146972656e+01,3.900000095367431641e+00,5.763829857841074045e-09,2.869698256802166725e-08,1.095893263816833496e+00,-1.644997484982013702e-02,-1.926689222455024719e-02
7.952000000000000000e+03,1.119999980926513672e+01,3.900000095367431641e+00,5.816250148171775436e-09,2.922629249724195688e-08,1.095893502235412598e+00,-1.645033434033393860e-02,-1.926445029675960541e-02
7.953000000000000000e+03,1.130000019073486328e+01,3.900000095367431641e+00,5.868670438502476827e-09,2.976036483914867858e-08,1.095893621444702148e+00,-1.645083539187908173e-02,-1.926236227154731750e-02
7.954000000000000000e+03,1.139999961853027344e+01,3.900000095367431641e+00,5.921090728833178218e-09,3.029919071195763536e-08,1.095893740653991699e+00,-1.645145192742347717e-02,-1.925988309085369110e-02
7.955000000000000000e+03,1.150000000000000000e+01,3.900000095367431641e+00,5.973511463253089460e-09,3.084278432652354240e-08,1.095893740653991699e+00,-1.645216159522533417e-02,-1.925780251622200012e-02
7.956000000000000000e+03,1.160000038146972656e+01,3.900000095367431641e+00,6.025932197673000701e-09,3.139113502470536332e-08,1.095893621444702148e+00,-1.645294204354286194e-02,-1.925555989146232605e-02
7.957000000000000000e+03,1.169999980926513672e+01,3.900000095367431641e+00,6.078352043914492242e-09,3.194423925378941931e-08,1.095893621444702148e+00,-1.645377650856971741e-02,-1.925317011773586273e-02
7.958000000000000000e+03,1.180000019073486328e+01,3.900000095367431641e+00,6.130772778334403483e-09,3.250210767191674677e-08,1.095893502235412598e+00,-1.645465008914470673e-02,-1.925122179090976715e-02
7.959000000000000000e+03,1.189999961853027344e+01,3.900000095367431641e+00,6.183193068665104875e-09,3.306472962094630930e-08,1.095893383026123047e+00,-1.645554974675178528e-02,-1.924895308911800385e-02
7.960000000000000000e+03,1.200000000000000000e+01,3.900000095367431641e+00,6.235613803085016116e-09,3.363211575901914330e-08,1.095893144607543945e+00,-1.645646430552005768e-02,-1.924714259803295135e-02
7.961000000000000000e+03,1.210000038146972656e+01,3.900000095367431641e+00,6.288034537504927357e-09,3.420426253342156997e-08,1.095893025398254395e+00,-1.645738258957862854e-02,-1.924521848559379578e-02
7.962000000000000000e+03,1.219999980926513672e+01,3.900000095367431641e+00,6.340454383746418898e-09,3.478115928601255291e-08,1.095892786979675293e+00,-1.645829714834690094e-02,-1.924318447709083557e-02
7.963000000000000000e+03,1.230000019073486328e+01,3.900000095367431641e+00,6.392875118166330140e-09,3.536282378036048613e-08,1.095892667770385742e+00,-1.645920053124427795e-02,-1.924161985516548157e-02
7.964000000000000000e+03,1.239999961853027344e+01,3.900000095367431641e+00,6.445295408497031531e-09,3.594924180561065441e-08,1.095892429351806641e+00,-1.646008715033531189e-02,-1.923975721001625061e-02
7.965000000000000000e+03,1.250000000000000000e+01,3.900000095367431641e+00,6.497716142916942772e-09,3.654042401990409417e-08,1.095892310142517090e+00,-1.646095141768455505e-02,-1.923836581408977509e-02
7.966000000000000000e+03,1.260000038146972656e+01,3.900000095367431641e+00,6.550136877336854013e-09,3.713636687052712659e-08,1.095892071723937988e+00,-1.646179147064685822e-02,-1.923687011003494263e-02
7.967000000000000000e+03,1.269999980926513672e+01,3.900000095367431641e+00,6.602557167667555404e-09,3.773705969933871529e-08,1.095891833305358887e+00,-1.646260172128677368e-02,-1.923526823520660400e-02
7.968000000000000000e+03,1.280000019073486328e+01,3.900000095367431641e+00,6.654977902087466646e-09,3.834252026990725426e-08,1.095891714096069336e+00,-1.646338216960430145e-02,-1.923413574695587158e-02
7.969000000000000000e+03,1.289999961853027344e+01,3.900000095367431641e+00,6.707398192418168037e-09,3.895273437137802830e-08,1.095891475677490234e+00,-1.646412909030914307e-02,-1.923270151019096375e-02
7.970000000000000000e+03,1.300000000000000000e+01,3.900000095367431641e+00,6.759818926838079278e-09,3.956770910917839501e-08,1.095891356468200684e+00,-1.646484248340129852e-02,-1.923173293471336365e-02
7.971000000000000000e+03,1.310000038146972656e+01,3.900000095367431641e+00,6.812239217168780669e-09,4.018744803602203319e-08,1.095891118049621582e+00,-1.646552048623561859e-02,-1.923064701259136200e-02
7.972000000000000000e+03,1.319999980926513672e+01,3.900000095367431641e+00,6.864659507499482061e-09,4.081193694105422765e-08,1.095890998840332031e+00,-1.646616309881210327e-02,-1.922944560647010803e-02
7.973000000000000000e+03,1.330000019073486328e+01,3.900000095367431641e+00,6.917080241919393302e-09,4.144119358784337237e-08,1.095890760421752930e+00,-1.646677032113075256e-02,-1.922869868576526642e-02
7.974000000000000000e+03,1.339999961853027344e+01,3.900000095367431641e+00,6.969500532250094693e-09,4.207520021282107336e-08,1.095890641212463379e+00,-1.646734215319156647e-02,-1.922763697803020477e-02
7.975000000000000000e+03,1.350000000000000000e+01,3.900000095367431641e+00,7.021921266670005934e-09,4.271397457955572463e-08,1.095890522003173828e+00,-1.646787859499454498e-02,-1.922702230513095856e-02
7.976000000000000000e+03,1.360000038146972656e+01,3.900000095367431641e+00,7.074342001089917176e-09,4.335750958261996857e-08,1.095890402793884277e+00,-1.646837778389453888e-02,-1.922627724707126617e-02
7.977000000000000000e+03,1.369999980926513672e+01,3.900000095367431641e+00,7.126762291420618567e-09,4.400579456387276878e-08,1.095890283584594727e+00,-1.646884530782699585e-02,-1.922539807856082916e-02
7.978000000000000000e+03,1.380000019073486328e+01,3.900000095367431641e+00,7.179183025840529808e-09,4.465884373416884046e-08,1.095890164375305176e+00,-1.646927557885646820e-02,-1.922495663166046143e-02
7.979000000000000000e+03,1.389999961853027344e+01,3.900000095367431641e+00,7.231603316171231199e-09,4.531664998808082601e-08,1.095890045166015625e+00,-1.646967232227325439e-02,-1.922417990863323212e-02
7.980000000000000000e+03,1.400000000000000000e+01,3.900000095367431641e+00,7.284024050591142441e-09,4.597921687832240423e-08,1.095889925956726074e+00,-1.647003367543220520e-02,-1.922383345663547516e-02
7.981000000000000000e+03,1.410000038146972656e+01,3.900000095367431641e+00,7.336444785011053682e-09,4.664654795760725392e-08,1.095889806747436523e+00,-1.647035963833332062e-02,-1.922333799302577972e-02
7.982000000000000000e+03,1.419999980926513672e+01,3.900000095367431641e+00,7.388864631252545223e-09,4.731862901508065988e-08,1.095889806747436523e+00,-1.647065207362174988e-02,-1.922268792986869812e-02
7.983000000000000000e+03,1.430000019073486328e+01,3.900000095367431641e+00,7.441285365672456464e-09,4.799547426159733732e-08,1.095889687538146973e+00,-1.647090725600719452e-02,-1.922245696187019348e-02
7.984000000000000000e+03,1.439999961853027344e+01,3.900000095367431641e+00,7.493706100092367706e-09,4.867707303901624982e-08,1.095889687538146973e+00,-1.647112518548965454e-02,-1.922187209129333496e-02
7.985000000000000000e+03,1.450000000000000000e+01,3.900000095367431641e+00,7.546126390423069097e-09,4.936343955819211260e-08,1.095889568328857422e+00,-1.647130586206912994e-02,-1.922169886529445648e-02
7.986000000000000000e+03,1.460000038146972656e+01,3.900000095367431641e+00,7.598547568932190188e-09,5.005456316098388925e-08,1.095889568328857422e+00,-1.647144369781017303e-02,-1.922135613858699799e-02
7.987000000000000000e+03,1.469999980926513672e+01,3.900000095367431641e+00,7.650967859262891579e-09,5.075044029467790097e-08,1.095889449119567871e+00,-1.647153869271278381e-02,-1.922083832323551178e-02
7.988000000000000000e+03,1.480000019073486328e+01,3.900000095367431641e+00,7.703388149593592971e-09,5.145108161741518416e-08,1.095889449119567871e+00,-1.647158525884151459e-02,-1.922071725130081177e-02
7.989000000000000000e+03,1.489999961853027344e+01,3.900000095367431641e+00,7.755808439924294362e-09,5.215647647105470242e-08,1.095889449119567871e+00,-1.647158153355121613e-02,-1.922022178769111633e-02
7.990000000000000000e+03,1.500000000000000000e+01,3.900000095367431641e+00,7.808228730254995753e-09,5.286663906645117095e-08,1.095889329910278320e+00,-1.647151820361614227e-02,-1.922011189162731171e-02
7.991000000000000000e+03,1.510000038146972656e+01,3.900000095367431641e+00,7.860649908764116844e-09,5.358155874546355335e-08,1.095889329910278320e+00,-1.647139154374599457e-02,-1.921980641782283783e-02
7.992000000000000000e+03,1.519999980926513672e+01,3.900000095367431641e+00,7.913070199094818236e-09,5.430122840266449202e-08,1.095889210700988770e+00,-1.647119224071502686e-02,-1.921929977834224701e-02
7.993000000000000000e+03,1.530000019073486328e+01,3.900000095367431641e+00,7.965490489425519627e-09,5.502566935433605977e-08,1.095889210700988770e+00,-1.647091284394264221e-02,-1.921916194260120392e-02
7.994000000000000000e+03,1.539999961853027344e+01,3.900000095367431641e+00,8.017910779756221018e-09,5.575485673148250498e-08,1.095889091491699219e+00,-1.647053845226764679e-02,-1.921861618757247925e-02
7.995000000000000000e+03,1.550000000000000000e+01,3.900000095367431641e+00,8.070331958265342109e-09,5.648881540309957927e-08,1.095888972282409668e+00,-1.647005975246429443e-02,-1.921842247247695923e-02
7.996000000000000000e+03,1.560000038146972656e+01,3.900000095367431641e+00,8.122752248596043501e-09,5.722753115833256743e-08,1.095888853073120117e+00,-1.646945811808109283e-02,-1.921799406409263611e-02
7.997000000000000000e+03,1.569999980926513672e+01,3.900000095367431641e+00,8.175172538926744892e-09,5.797099689175411186e-08,1.095888733863830566e+00,-1.646871864795684814e-02,-1.921732351183891296e-02
7.998000000000000000e+03,1.580000019073486328e+01,3.900000095367431641e+00,8.227592829257446283e-09,5.871923036693260656e-08,1.095888495445251465e+00,-1.646782085299491882e-02,-1.921697147190570831e-02
7.999000000000000000e+03,1.589999961853027344e+01,3.900000095367431641e+00,8.280013119588147674e-09,5.947221737301333633e-08,1.095888137817382812e+00,-1.646674051880836487e-02,-1.921615935862064362e-02
8.000000000000000000e+03,1.600000000000000000e+01,3.900000095367431641e+00,8.332433409918849065e-09,6.022996501542365877e-08,1.095887780189514160e+00,-1.646545156836509705e-02,-1.921564154326915741e-02
8.001000000000000000e+03,1.610000038146972656e+01,3.900000095367431641e+00,8.384854588427970157e-09,6.099247684687725268e-08,1.095887303352355957e+00,-1.646392233669757843e-02,-1.921482384204864502e-02
8.002000000000000000e+03,1.620000076293945312e+01,3.900000095367431641e+00,8.437274878758671548e-09,6.175974931466043927e-08,1.095886707305908203e+00,-1.646212115883827209e-02,-1.921388320624828339e-02
8.003000000000000000e+03,1.629999923706054688e+01,3.900000095367431641e+00,8.489694280910953239e-09,6.253176110249114572e-08,1.095885872840881348e+00,-1.646001078188419342e-02,-1.921241357922554016e-02
8.004000000000000000e+03,1.639999961853027344e+01,3.900000095367431641e+00,8.542114571241654630e-09,6.330855484293351765e-08,1.095885038375854492e+00,-1.645754463970661163e-02,-1.921154931187629700e-02
8.005000000000000000e+03,1.650000000000000000e+01,3.900000095367431641e+00,8.594534861572356021e-09,6.409010211427812465e-08,1.095883846282958984e+00,-1.645467802882194519e-02,-1.921011321246623993e-02
8.006000000000000000e+03,1.660000038146972656e+01,3.900000095367431641e+00,8.646954263724637713e-09,6.487641002195232431e-08,1.095882415771484375e+00,-1.645135506987571716e-02,-1.920846663415431976e-02
8.007000000000000000e+03,1.670000076293945312e+01,3.900000095367431641e+00,8.699374554055339104e-09,6.566747146052875905e-08,1.095880627632141113e+00,-1.644752174615859985e-02,-1.920658163726329803e-02
8.008000000000000000e+03,1.679999923706054688e+01,3.900000095367431641e+00,8.751793068029201095e-09,6.646328643000742886e-08,1.095878481864929199e+00,-1.644311100244522095e-02,-1.920405030250549316e-02
8.009000000000000000e+03,1.689999961853027344e+01,3.900000095367431641e+00,8.804213358359902486e-09,6.726386914124304894e-08,1.095875859260559082e+00,-1.643805205821990967e-02,-1.920199580490589142e-02
8.010000000000000000e+03,1.700000000000000000e+01,3.900000095367431641e+00,8.856631872333764477e-09,6.806921248880826170e-08,1.095872640609741211e+00,-1.643227413296699524e-02,-1.919924095273017883e-02
8.011000000000000000e+03,1.710000038146972656e+01,3.900000095367431641e+00,8.909051274486046168e-09,6.887931647270306712e-08,1.095868825912475586e+00,-1.642569527029991150e-02,-1.919614337384700775e-02
8.012000000000000000e+03,1.720000076293945312e+01,3.900000095367431641e+00,8.961469788459908159e-09,6.969417398750010761e-08,1.095864176750183105e+00,-1.641823165118694305e-02,-1.919268444180488586e-02
8.013000000000000000e+03,1.729999923706054688e+01,3.900000095367431641e+00,9.013887414255350450e-09,7.051377792777202558e-08,1.095858693122863770e+00,-1.640979945659637451e-02,-1.918846368789672852e-02
8.014000000000000000e+03,1.739999961853027344e+01,3.900000095367431641e+00,9.066305040050792741e-09,7.133816382065560902e-08,1.095852017402648926e+00,-1.640030927956104279e-02,-1.918462663888931274e-02
8.015000000000000000e+03,1.750000000000000000e+01,3.900000095367431641e+00,9.118722665846235031e-09,7.216730324444142752e-08,1.095844149589538574e+00,-1.638967730104923248e-02,-1.918003149330615997e-02
8.016000000000000000e+03,1.760000038146972656e+01,3.900000095367431641e+00,9.171139403463257622e-09,7.300119619912948110e-08,1.095834732055664062e+00,-1.637782901525497437e-02,-1.917508430778980255e-02
8.017000000000000000e+03,1.770000076293945312e+01,3.900000095367431641e+00,9.223555252901860513e-09,7.383985689557448495e-08,1.095823526382446289e+00,-1.636469922959804535e-02,-1.916984282433986664e-02
8.018000000000000000e+03,1.779999923706054688e+01,3.900000095367431641e+00,9.275970214162043703e-09,7.468325691206700867e-08,1.095810174942016602e+00,-1.635024882853031158e-02,-1.916400715708732605e-02
8.019000000000000000e+03,1.789999961853027344e+01,3.900000095367431641e+00,9.328384287243807194e-09,7.553143177574384026e-08,1.095794558525085449e+00,-1.633447222411632538e-02,-1.915886625647544861e-02
8.020000000000000000e+03,1.800000000000000000e+01,3.900000095367431641e+00,9.380797472147150984e-09,7.638436727575026453e-08,1.095775961875915527e+00,-1.631741784512996674e-02,-1.915346086025238037e-02
8.021000000000000000e+03,1.810000038146972656e+01,3.900000095367431641e+00,9.433208880693655374e-09,7.724205630665892386e-08,1.095754146575927734e+00,-1.629921235144138336e-02,-1.914845220744609833e-02
8.022000000000000000e+03,1.820000076293945312e+01,3.900000095367431641e+00,9.485619401061740064e-09,7.810450597389717586e-08,1.095728516578674316e+00,-1.628008671104907990e-02,-1.914420910179615021e-02
8.023000000000000000e+03,1.829999923706054688e+01,3.900000095367431641e+00,9.538027256894565653e-09,7.897170206661030534e-08,1.095698595046997070e+00,-1.626043766736984253e-02,-1.914084143936634064e-02
8.024000000000000000e+03,1.839999961853027344e+01,3.900000095367431641e+00,9.590433336370551842e-09,7.984366590108038508e-08,1.095663785934448242e+00,-1.624086499214172363e-02,-1.914014294743537903e-02
8.025000000000000000e+03,1.850000000000000000e+01,3.900000095367431641e+00,9.642838527668118331e-09,8.072039747730741510e-08,1.095623493194580078e+00,-1.622226834297180176e-02,-1.914176717400550842e-02
8.026000000000000000e+03,1.860000038146972656e+01,3.900000095367431641e+00,9.695240166252006020e-09,8.160187547900932259e-08,1.095577239990234375e+00,-1.620594039559364319e-02,-1.914708316326141357e-02
8.027000000000000000e+03,1.870000076293945312e+01,3.900000095367431641e+00,9.747640028479054308e-09,8.248811411704082275e-08,1.095524668693542480e+00,-1.619368419051170349e-02,-1.915725506842136383e-02
8.028000000000000000e+03,1.879999923706054688e+01,3.900000095367431641e+00,9.800035449814004096e-09,8.337909207511984278e-08,1.095465660095214844e+00,-1.618795655667781830e-02,-1.917319931089878082e-02
8.029000000000000000e+03,1.889999961853027344e+01,3.900000095367431641e+00,9.852428206613694783e-09,8.427484488038317068e-08,1.095400333404541016e+00,-1.619200222194194794e-02,-1.919739879667758942e-02
8.030000000000000000e+03,1.900000000000000000e+01,3.900000095367431641e+00,9.904819187056546070e-09,8.517535121654873365e-08,1.095329880714416504e+00,-1.620996184647083282e-02,-1.922986656427383423e-02
8.031000000000000000e+03,1.910000038146972656e+01,3.900000095367431641e+00,9.957206614785718557e-09,8.608061818904388929e-08,1.095255851745605469e+00,-1.624685153365135193e-02,-1.927165687084197998e-02
8.032000000000000000e+03,1.920000076293945312e+01,3.900000095367431641e+00,1.000959048980121224e-08,8.699063158701392240e-08,1.095181465148925781e+00,-1.630836911499500275e-02,-1.932243444025516510e-02
8.033000000000000000e+03,1.929999923706054688e+01,3.900000095367431641e+00,1.006197258845986653e-08,8.790538430503147538e-08,1.095110774040222168e+00,-1.640032976865768433e-02,-1.937983185052871704e-02
8.034000000000000000e+03,1.939999961853027344e+01,3.900000095367431641e+00,1.011435379894010111e-08,8.882490476480597863e-08,1.095049023628234863e+00,-1.652766577899456024e-02,-1.944066770374774933e-02
8.035000000000000000e+03,1.950000000000000000e+01,3.900000095367431641e+00,1.016673589759875540e-08,8.974918586091007455e-08,1.095002055168151855e+00,-1.669295132160186768e-02,-1.949657127261161804e-02
8.036000000000000000e+03,1.960000038146972656e+01,3.900000095367431641e+00,1.021911888443582939e-08,9.067822759334376315e-08,1.094974637031555176e+00,-1.689467392861843109e-02,-1.953786797821521759e-02
8.037000000000000000e+03,1.970000076293945312e+01,3.900000095367431641e+00,1.027150542398658217e-08,9.161202285667968681e-08,1.094968914985656738e+00,-1.712577417492866516e-02,-1.955262944102287292e-02
8.038000000000000000e+03,1.979999923706054688e+01,3.900000095367431641e+00,1.032389462807259406e-08,9.255056454549048794e-08,1.094982743263244629e+00,-1.737315021455287933e-02,-1.952878758311271667e-02
8.039000000000000000e+03,1.989999961853027344e+01,3.900000095367431641e+00,1.037628916122912415e-08,9.349389529234031215e-08,1.095008492469787598e+00,-1.761883310973644257e-02,-1.945899426937103271e-02
8.040000000000000000e+03,2.000000000000000000e+01,3.900000095367431641e+00,1.042868902345617244e-08,9.444200088637444424e-08,1.095034480094909668e+00,-1.784287765622138977e-02,-1.933966390788555145e-02
8.041000000000000000e+03,0.000000000000000000e+00,4.000000000000000000e+00,3.244310026678710004e-38,-1.506175845290279355e-39,9.837260842323303223e-01,2.951178252696990967e-01,-2.955690324306488037e-01
8.042000000000000000e+03,1.000000014901161194e-01,4.000000000000000000e+00,4.262813019240141443e-11,-3.659425887314604608e-11,9.809962511062622070e-01,2.860182523727416992e-01,-3.253831863403320312e-01
8.043000000000000000e+03,2.000000029802322388e-01,4.000000000000000000e+00,8.549798369283934107e-11,-6.669915314505558968e-11,9.826970100402832031e-01,2.747669517993927002e-01,-3.034199476242065430e-01
8.044000000000000000e+03,3.000000119209289551e-01,4.000000000000000000e+00,1.286932505006888050e-10,-9.043527732233158645e-11,9.852816462516784668e-01,2.606037259101867676e-01,-2.829305529594421387e-01
8.045000000000000000e+03,4.000000059604644775e-01,4.000000000000000000e+00,1.722788994795720896e-10,-1.078457323444581561e-10,9.885388612747192383e-01,2.441342175006866455e-01,-2.632045149803161621e-01
8.046000000000000000e+03,5.000000000000000000e-01,4.000000000000000000e+00,2.162916373782408641e-10,-1.189197629258842426e-10,9.920970201492309570e-01,2.260981798171997070e-01,-2.437877506017684937e-01
8.047000000000000000e+03,6.000000238418579102e-01,4.000000000000000000e+00,2.607384586017502670e-10,-1.236183932995515988e-10,9.955538511276245117e-01,2.072349190711975098e-01,-2.244895398616790771e-01
8.048000000000000000e+03,6.999999880790710449e-01,4.000000000000000000e+00,3.056012942703745239e-10,-1.218964373883579810e-10,9.985770583152770996e-01,1.881911605596542358e-01,-2.053294926881790161e-01
8.049000000000000000e+03,8.000000119209289551e-01,4.000000000000000000e+00,3.508446866362646688e-10,-1.137178823329421107e-10,1.000954270362854004e+00,1.694768816232681274e-01,-1.864591687917709351e-01
8.050000000000000000e+03,8.999999761581420898e-01,4.000000000000000000e+00,3.964236994224989985e-10,-9.906438169782205705e-11,1.002597332000732422e+00,1.514592319726943970e-01,-1.680871546268463135e-01
8.051000000000000000e+03,1.000000000000000000e+00,4.000000000000000000e+00,4.422905930390186313e-10,-7.793836409586418768e-11,1.003517746925354004e+00,1.343787908554077148e-01,-1.504241228103637695e-01
8.052000000000000000e+03,1.100000023841857910e+00,4.000000000000000000e+00,4.883991544524235451e-10,-5.036251277124037529e-11,1.003792881965637207e+00,1.183753013610839844e-01,-1.336503326892852783e-01
8.053000000000000000e+03,1.200000047683715820e+00,4.000000000000000000e+00,5.347077225437146808e-10,-1.637723810732349961e-11,1.003533840179443359e+00,1.035137996077537537e-01,-1.179016083478927612e-01
8.054000000000000000e+03,1.299999952316284180e+00,4.000000000000000000e+00,5.811800485311380271e-10,2.396252987701963377e-11,1.002861857414245605e+00,8.980726450681686401e-02,-1.032674163579940796e-01
8.055000000000000000e+03,1.399999976158142090e+00,4.000000000000000000e+00,6.277859343484237797e-10,7.059097056894003686e-11,1.001893639564514160e+00,7.723417878150939941e-02,-8.979535102844238281e-02
8.056000000000000000e+03,1.500000000000000000e+00,4.000000000000000000e+00,6.745005665109715665e-10,1.234341379108272463e-10,1.000731945037841797e+00,6.575158983469009399e-02,-7.749811559915542603e-02
8.057000000000000000e+03,1.600000023841857910e+00,4.000000000000000000e+00,7.213040165154893657e-10,1.824128903482602482e-10,9.994632601737976074e-01,5.530404672026634216e-02,-6.636127084493637085e-02
8.058000000000000000e+03,1.700000047683715820e+00,4.000000000000000000e+00,7.681805747061787315e-10,2.474450644385228770e-10,9.981566071510314941e-01,4.582974314689636230e-02,-5.635007098317146301e-02
8.059000000000000000e+03,1.799999952316284180e+00,4.000000000000000000e+00,8.151179176074663246e-10,3.184471852879511289e-10,9.968652129173278809e-01,3.726447001099586487e-02,-4.741528257727622986e-02
8.060000000000000000e+03,1.899999976158142090e+00,4.000000000000000000e+00,8.621067748570965250e-10,3.953362359698786577e-10,9.956281185150146484e-01,2.954407595098018646e-02,-3.949806094169616699e-02
8.061000000000000000e+03,2.000000000000000000e+00,4.000000000000000000e+00,9.091396524496531129e-10,4.780302265139368956e-10,9.944728612899780273e-01,2.260603010654449463e-02,-3.253340348601341248e-02
8.062000000000000000e+03,2.099999904632568359e+00,4.000000000000000000e+00,9.562111102923154249e-10,5.664494429069577563e-10,9.934174418449401855e-01,1.639025844633579254e-02,-2.645323984324932098e-02
8.063000000000000000e+03,2.200000047683715820e+00,4.000000000000000000e+00,1.003316874026438654e-09,6.605172520046664886e-10,9.924721717834472656e-01,1.083955727517604828e-02,-2.118857018649578094e-02
8.064000000000000000e+03,2.299999952316284180e+00,4.000000000000000000e+00,1.050453612982948925e-09,7.601595464201693630e-10,9.916417598724365234e-01,5.899884272366762161e-03,-1.667069084942340851e-02
8.065000000000000000e+03,2.400000095367431641e+00,4.000000000000000000e+00,1.097618884671192063e-09,8.653068261921248450e-10,9.909263849258422852e-01,1.520289806649088860e-03,-1.283298898488283157e-02
8.066000000000000000e+03,2.500000000000000000e+00,4.000000000000000000e+00,1.144810579667421280e-09,9.758921448721480374e-10,9.903231263160705566e-01,-2.347019035369157791e-03,-9.610979817807674408e-03
8.067000000000000000e+03,2.599999904632568359e+00,4.000000000000000000e+00,1.192027254681704562e-09,1.091853496504313625e-09,9.898268580436706543e-01,-5.746851209551095963e-03,-6.943620275706052780e-03
8.068000000000000000e+03,2.700000047683715820e+00,4.000000000000000000e+00,1.239267688468714823e-09,1.213132594379828788e-09,9.894307851791381836e-01,-8.721102960407733917e-03,-4.773149732500314713e-03
8.069000000000000000e+03,2.799999952316284180e+00,4.000000000000000000e+00,1.286530548760822512e-09,1.339674149392067193e-09,9.891273975372314453e-01,-1.130885910242795944e-02,-3.045320045202970505e-03
8.070000000000000000e+03,2.900000095367431641e+00,4.000000000000000000e+00,1.333814947379607929e-09,1.471427979460315782e-09,9.889085888862609863e-01,-1.354657020419836044e-02,-1.709984848275780678e-03
8.071000000000000000e+03,3.000000000000000000e+00,4.000000000000000000e+00,1.381119996146651374e-09,1.608346567039120600e-09,9.887660145759582520e-01,-1.546811498701572418e-02,-7.203493150882422924e-04
8.072000000000000000e+03,3.099999904632568359e+00,4.000000000000000000e+00,1.428444917905835609e-09,1.750386613430521265e-09,9.886915087699890137e-01,-1.710496097803115845e-02,-3.367996032466180623e-05
8.073000000000000000e+03,3.200000047683715820e+00,4.000000000000000000e+00,1.475788935501043397e-09,1.897508372650236197e-09,9.886772632598876953e-01,-1.848625764250755310e-02,3.893104149028658867e-04
8.074000000000000000e+03,3.299999952316284180e+00,4.000000000000000000e+00,1.523151160753855038e-09,2.049674652226940452e-09,9.887156486511230469e-01,-1.963893696665763855e-02,5.845934501849114895e-04
8.075000000000000000e+03,3.400000095367431641e+00,4.000000000000000000e+00,1.570531038552758218e-09,2.206852256492197739e-09,9.887995719909667969e-01,-2.058785222470760345e-02,5.844815750606358051e-04
8.076000000000000000e+03,3.500000000000000000e+00,4.000000000000000000e+00,1.617927569697030776e-09,2.369010099201318553e-09,9.889224171638488770e-01,-2.135585062205791473e-02,4.185650614090263844e-04
8.077000000000000000e+03,3.599999904632568359e+00,4.000000000000000000e+00,1.665340199075160399e-09,2.536120424778687266e-09,9.890782237052917480e-01,-2.196390181779861450e-02,1.131382814492098987e-04
8.078000000000000000e+03,3.700000047683715820e+00,4.000000000000000000e+00,1.712768482597937236e-09,2.708158586273157198e-09,9.892613291740417480e-01,-2.243118733167648315e-02,-3.081040049437433481e-04
8.079000000000000000e+03,3.799999952316284180e+00,4.000000000000000000e+00,1.760211199020034201e-09,2.885100602867396447e-09,9.894667863845825195e-01,-2.277520485222339630e-02,-8.238739101216197014e-04
8.080000000000000000e+03,3.900000095367431641e+00,4.000000000000000000e+00,1.807668126296846367e-09,3.066927156680776534e-09,9.896899461746215820e-01,-2.301187813282012939e-02,-1.415604725480079651e-03
8.081000000000000000e+03,4.000000000000000000e+00,4.000000000000000000e+00,1.855138265227651573e-09,3.253618263698854207e-09,9.899268746376037598e-01,-2.315563708543777466e-02,-2.066511195152997971e-03
8.082000000000000000e+03,4.099999904632568359e+00,4.000000000000000000e+00,1.902620949678635043e-09,3.445158380799284714e-09,9.901738762855529785e-01,-2.321952953934669495e-02,-2.762161893770098686e-03
8.083000000000000000e+03,4.199999809265136719e+00,4.000000000000000000e+00,1.950115846582889390e-09,3.641532408948933153e-09,9.904277920722961426e-01,-2.321530878543853760e-02,-3.489760914817452431e-03
8.084000000000000000e+03,4.300000190734863281e+00,4.000000000000000000e+00,1.997622289806599838e-09,3.842727913649923721e-09,9.906858205795288086e-01,-2.315352670848369598e-02,-4.238318186253309250e-03
8.085000000000000000e+03,4.400000095367431641e+00,4.000000000000000000e+00,2.045139391171346688e-09,4.048732016315170767e-09,9.909453988075256348e-01,-2.304362133145332336e-02,-4.997986834496259689e-03
8.086000000000000000e+03,4.500000000000000000e+00,4.000000000000000000e+00,2.092666706587920089e-09,4.259534502892847740e-09,9.912045598030090332e-01,-2.289400063455104828e-02,-5.760842468589544296e-03
8.087000000000000000e+03,4.599999904632568359e+00,4.000000000000000000e+00,2.140203569922505267e-09,4.475127379777177339e-09,9.914613962173461914e-01,-2.271212637424468994e-02,-6.519828457385301590e-03
8.088000000000000000e+03,4.699999809265136719e+00,4.000000000000000000e+00,2.187749315041287446e-09,4.695501321094752711e-09,9.917143583297729492e-01,-2.250459417700767517e-02,-7.269079796969890594e-03
8.089000000000000000e+03,4.800000190734863281e+00,4.000000000000000000e+00,2.235304163988871551e-09,4.920651885953475357e-09,9.919621944427490234e-01,-2.227720245718955994e-02,-8.003809489309787750e-03
8.090000000000000000e+03,4.900000095367431641e+00,4.000000000000000000e+00,2.282866562453023107e-09,5.150570192569148276e-09,9.922037124633789062e-01,-2.203502878546714783e-02,-8.719737641513347626e-03
8.091000000000000000e+03,5.000000000000000000e+00,4.000000000000000000e+00,2.330436732478347039e-09,5.385252244138882816e-09,9.924381375312805176e-01,-2.178248763084411621e-02,-9.413917548954486847e-03
8.092000000000000000e+03,5.099999904632568359e+00,4.000000000000000000e+00,2.378014007931028573e-09,5.624694043859790327e-09,9.926646947860717773e-01,-2.152340300381183624e-02,-1.008372381329536438e-02
8.093000000000000000e+03,5.199999809265136719e+00,4.000000000000000000e+00,2.425597722677252932e-09,5.868891150839772308e-09,9.928828477859497070e-01,-2.126105502247810364e-02,-1.072722114622592926e-02
8.094000000000000000e+03,5.300000190734863281e+00,4.000000000000000000e+00,2.473188098761625042e-09,6.117842676900409060e-09,9.930921792984008789e-01,-2.099824696779251099e-02,-1.134309172630310059e-02
8.095000000000000000e+03,5.400000095367431641e+00,4.000000000000000000e+00,2.520783803916515353e-09,6.371542848881972532e-09,9.932923913002014160e-01,-2.073734253644943237e-02,-1.193010713905096054e-02
8.096000000000000000e+03,5.500000000000000000e+00,4.000000000000000000e+00,2.568385060186528790e-09,6.629990778606043023e-09,9.934833645820617676e-01,-2.048032172024250031e-02,-1.248798239976167679e-02
8.097000000000000000e+03,5.599999904632568359e+00,4.000000000000000000e+00,2.615991423482455502e-09,6.893185577894200833e-09,9.936649799346923828e-01,-2.022881992161273956e-02,-1.301641017198562622e-02
8.098000000000000000e+03,5.699999809265136719e+00,4.000000000000000000e+00,2.663602449715085640e-09,7.161125026300396712e-09,9.938371777534484863e-01,-1.998416706919670105e-02,-1.351545844227075577e-02
8.099000000000000000e+03,5.800000190734863281e+00,4.000000000000000000e+00,2.711218138884419204e-09,7.433810012003050360e-09,9.940000772476196289e-01,-1.974742114543914795e-02,-1.398552395403385162e-02
8.100000000000000000e+03,5.900000095367431641e+00,4.000000000000000000e+00,2.758837602812036494e-09,7.711236982288482977e-09,9.941537976264953613e-01,-1.951940916478633881e-02,-1.442684605717658997e-02
8.101000000000000000e+03,6.000000000000000000e+00,4.000000000000000000e+00,2.806460841497937508e-09,7.993406825335114263e-09,9.942985773086547852e-01,-1.930074766278266907e-02,-1.484037097543478012e-02
8.102000000000000000e+03,6.099999904632568359e+00,4.000000000000000000e+00,2.854087410852912399e-09,8.280318652964524517e-09,9.944344758987426758e-01,-1.909187436103820801e-02,-1.522682420909404755e-02
8.103000000000000000e+03,6.199999809265136719e+00,4.000000000000000000e+00,2.901717532921566089e-09,8.571973353355133440e-09,9.945619106292724609e-01,-1.889307238161563873e-02,-1.558712124824523926e-02
8.104000000000000000e+03,6.300000190734863281e+00,4.000000000000000000e+00,2.949350541570083806e-09,8.868372702863780432e-09,9.946810603141784668e-01,-1.870449073612689972e-02,-1.592234894633293152e-02
8.105000000000000000e+03,6.400000095367431641e+00,4.000000000000000000e+00,2.996986214753860622e-09,9.169513148776786693e-09,9.947922825813293457e-01,-1.852616667747497559e-02,-1.623329520225524902e-02
8.106000000000000000e+03,6.500000000000000000e+00,4.000000000000000000e+00,3.044624552472896539e-09,9.475396467450991622e-09,9.948958754539489746e-01,-1.835804060101509094e-02,-1.652132719755172729e-02
8.107000000000000000e+03,6.599999904632568359e+00,4.000000000000000000e+00,3.092265110637981707e-09,9.786022658886395220e-09,9.949921369552612305e-01,-1.819997094571590424e-02,-1.678748801350593567e-02
8.108000000000000000e+03,6.699999809265136719e+00,4.000000000000000000e+00,3.139907667204511199e-09,1.010139349943983689e-08,9.950814843177795410e-01,-1.805175468325614929e-02,-1.703291386365890503e-02
8.109000000000000000e+03,6.800000190734863281e+00,4.000000000000000000e+00,3.187552444217089942e-09,1.042151076546815602e-08,9.951642155647277832e-01,-1.791312918066978455e-02,-1.725883036851882935e-02
8.110000000000000000e+03,6.900000095367431641e+00,4.000000000000000000e+00,3.235198997586508085e-09,1.074637090425767383e-08,9.952406287193298340e-01,-1.778379268944263458e-02,-1.746609434485435486e-02
8.111000000000000000e+03,7.000000000000000000e+00,4.000000000000000000e+00,3.282847105268160703e-09,1.107597658034364940e-08,9.953110814094543457e-01,-1.766340807080268860e-02,-1.765608601272106171e-02
8.112000000000000000e+03,7.099999904632568359e+00,4.000000000000000000e+00,3.330496545217442872e-09,1.141032868190450245e-08,9.953759908676147461e-01,-1.755161397159099579e-02,-1.782980561256408691e-02
8.113000000000000000e+03,7.199999809265136719e+00,4.000000000000000000e+00,3.378147539478959516e-09,1.174942809711865266e-08,9.954355955123901367e-01,-1.744802854955196381e-02,-1.798830740153789520e-02
8.114000000000000000e+03,7.300000190734863281e+00,4.000000000000000000e+00,3.425799866008105710e-09,1.209327571416451974e-08,9.954902529716491699e-01,-1.735226251184940338e-02,-1.813269965350627899e-02
8.115000000000000000e+03,7.400000095367431641e+00,4.000000000000000000e+00,3.473453080715671604e-09,1.244187064486368399e-08,9.955402612686157227e-01,-1.726391725242137909e-02,-1.826369762420654297e-02
8.116000000000000000e+03,7.500000000000000000e+00,4.000000000000000000e+00,3.521107405646262123e-09,1.279521377739456511e-08,9.955859184265136719e-01,-1.718259043991565704e-02,-1.838250830769538879e-02
8.117000000000000000e+03,7.599999904632568359e+00,4.000000000000000000e+00,3.568762618755272342e-09,1.315330688811400250e-08,9.956275224685668945e-01,-1.710788719356060028e-02,-1.848994940519332886e-02
8.118000000000000000e+03,7.699999809265136719e+00,4.000000000000000000e+00,3.616418497998097337e-09,1.351614997702199616e-08,9.956654310226440430e-01,-1.703941076993942261e-02,-1.858687773346900940e-02
8.119000000000000000e+03,7.800000190734863281e+00,4.000000000000000000e+00,3.664075487463946956e-09,1.388374482047538550e-08,9.956997632980346680e-01,-1.697677560150623322e-02,-1.867419295012950897e-02
8.120000000000000000e+03,7.900000095367431641e+00,4.000000000000000000e+00,3.711732921019006426e-09,1.425608964211733110e-08,9.957308769226074219e-01,-1.691961102187633514e-02,-1.875239424407482147e-02
8.121000000000000000e+03,8.000000000000000000e+00,4.000000000000000000e+00,3.759391020707880671e-09,1.463318621830467237e-08,9.957590103149414062e-01,-1.686754822731018066e-02,-1.882247440516948700e-02
8.122000000000000000e+03,8.100000381469726562e+00,4.000000000000000000e+00,3.807049786530569691e-09,1.501503632539424871e-08,9.957843422889709473e-01,-1.682023704051971436e-02,-1.888512447476387024e-02
8.123000000000000000e+03,8.199999809265136719e+00,4.000000000000000000e+00,3.854708552353258710e-09,1.540163552249396162e-08,9.958071112632751465e-01,-1.677734032273292542e-02,-1.894061267375946045e-02
8.124000000000000000e+03,8.300000190734863281e+00,4.000000000000000000e+00,3.902368206354367430e-09,1.579299180320958840e-08,9.958275556564331055e-01,-1.673853769898414612e-02,-1.899017952382564545e-02
8.125000000000000000e+03,8.399999618530273438e+00,4.000000000000000000e+00,3.950027860355476150e-09,1.618909806211377145e-08,9.958458542823791504e-01,-1.670352183282375336e-02,-1.903365366160869598e-02
8.126000000000000000e+03,8.500000000000000000e+00,4.000000000000000000e+00,3.997687958445794720e-09,1.658996140463386837e-08,9.958621859550476074e-01,-1.667200028896331787e-02,-1.907228492200374603e-02
8.127000000000000000e+03,8.600000381469726562e+00,4.000000000000000000e+00,4.045348944714532990e-09,1.699558005441303976e-08,9.958766698837280273e-01,-1.664369739592075348e-02,-1.910600997507572174e-02
8.128000000000000000e+03,8.699999809265136719e+00,4.000000000000000000e+00,4.093009042804851561e-09,1.740594868238076742e-08,9.958895444869995117e-01,-1.661835238337516785e-02,-1.913527771830558777e-02
8.129000000000000000e+03,8.800000190734863281e+00,4.000000000000000000e+00,4.140670473162799681e-09,1.782107794667808776e-08,9.959008693695068359e-01,-1.659571938216686249e-02,-1.916105113923549652e-02
8.130000000000000000e+03,8.899999618530273438e+00,4.000000000000000000e+00,4.188331015342328101e-09,1.824095718916396436e-08,9.959108829498291016e-01,-1.657557114958763123e-02,-1.918298192322254181e-02
8.131000000000000000e+03,9.000000000000000000e+00,4.000000000000000000e+00,4.235992889789486071e-09,1.866559884433627303e-08,9.959195852279663086e-01,-1.655768975615501404e-02,-1.920215412974357605e-02
8.132000000000000000e+03,9.100000381469726562e+00,4.000000000000000000e+00,4.283654320147434191e-09,1.909499403041081678e-08,9.959272146224975586e-01,-1.654187403619289398e-02,-1.921834610402584076e-02
8.133000000000000000e+03,9.199999809265136719e+00,4.000000000000000000e+00,4.331315750505382312e-09,1.952914274738759559e-08,9.959338903427124023e-01,-1.652793958783149719e-02,-1.923185400664806366e-02
8.134000000000000000e+03,9.300000190734863281e+00,4.000000000000000000e+00,4.378977180863330432e-09,1.996805210069396708e-08,9.959395527839660645e-01,-1.651570945978164673e-02,-1.924349740147590637e-02
8.135000000000000000e+03,9.399999618530273438e+00,4.000000000000000000e+00,4.426638611221278552e-09,2.041171320854573423e-08,9.959444999694824219e-01,-1.650502346456050873e-02,-1.925279758870601654e-02
8.136000000000000000e+03,9.500000000000000000e+00,4.000000000000000000e+00,4.474300929757646372e-09,2.086013672908393346e-08,9.959486722946166992e-01,-1.649573259055614471e-02,-1.926071196794509888e-02
8.137000000000000000e+03,9.600000381469726562e+00,4.000000000000000000e+00,4.521962804204804343e-09,2.131331733323804656e-08,9.959521889686584473e-01,-1.648769527673721313e-02,-1.926689594984054565e-02
8.138000000000000000e+03,9.699999809265136719e+00,4.000000000000000000e+00,4.569624234562752463e-09,2.177125146829439473e-08,9.959551095962524414e-01,-1.648078858852386475e-02,-1.927154138684272766e-02
8.139000000000000000e+03,9.800000190734863281e+00,4.000000000000000000e+00,4.617286553099120283e-09,2.223394623968033557e-08,9.959575533866882324e-01,-1.647489517927169800e-02,-1.927536353468894958e-02
8.140000000000000000e+03,9.899999618530273438e+00,4.000000000000000000e+00,4.664947983457068403e-09,2.270139631832535088e-08,9.959594607353210449e-01,-1.646990329027175903e-02,-1.927778683602809906e-02
8.141000000000000000e+03,1.000000000000000000e+01,4.000000000000000000e+00,4.712610301993436224e-09,2.317360703329995886e-08,9.959610700607299805e-01,-1.646571978926658630e-02,-1.927968114614486694e-02
8.142000000000000000e+03,1.010000038146972656e+01,4.000000000000000000e+00,4.760272176440594194e-09,2.365057660824732011e-08,9.959622621536254883e-01,-1.646225154399871826e-02,-1.928062364459037781e-02
8.143000000000000000e+03,1.019999980926513672e+01,4.000000000000000000e+00,4.807934050887752164e-09,2.413229971409691643e-08,9.959631562232971191e-01,-1.645941846072673798e-02,-1.928071118891239166e-02
8.144000000000000000e+03,1.030000019073486328e+01,4.000000000000000000e+00,4.855596369424119985e-09,2.461878700898978423e-08,9.959638118743896484e-01,-1.645714417099952698e-02,-1.928062364459037781e-02
8.145000000000000000e+03,1.039999961853027344e+01,4.000000000000000000e+00,4.903257799782068105e-09,2.511002605842804769e-08,9.959642291069030762e-01,-1.645536348223686218e-02,-1.927968114614486694e-02
8.146000000000000000e+03,1.050000000000000000e+01,4.000000000000000000e+00,4.950920118318435925e-09,2.560602929690958263e-08,9.959644079208374023e-01,-1.645401120185852051e-02,-1.927873119711875916e-02
8.147000000000000000e+03,1.060000038146972656e+01,4.000000000000000000e+00,4.998581992765593895e-09,2.610679139536387083e-08,9.959644079208374023e-01,-1.645303703844547272e-02,-1.927726902067661285e-02
8.148000000000000000e+03,1.069999980926513672e+01,4.000000000000000000e+00,5.046243867212751866e-09,2.661230702472039411e-08,9.959643483161926270e-01,-1.645238697528839111e-02,-1.927535608410835266e-02
8.149000000000000000e+03,1.080000019073486328e+01,4.000000000000000000e+00,5.093905741659909836e-09,2.712258684312018886e-08,9.959641098976135254e-01,-1.645201630890369415e-02,-1.927362196147441864e-02
8.150000000000000000e+03,1.089999961853027344e+01,4.000000000000000000e+00,5.141567172017857956e-09,2.763761841606537928e-08,9.959637522697448730e-01,-1.645188592374324799e-02,-1.927134953439235687e-02
8.151000000000000000e+03,1.100000000000000000e+01,4.000000000000000000e+00,5.189229490554225777e-09,2.815741595441068057e-08,9.959633350372314453e-01,-1.645196042954921722e-02,-1.926934532821178436e-02
8.152000000000000000e+03,1.110000038146972656e+01,4.000000000000000000e+00,5.236891365001383747e-09,2.868197057637189573e-08,9.959628582000732422e-01,-1.645220629870891571e-02,-1.926707103848457336e-02
8.153000000000000000e+03,1.119999980926513672e+01,4.000000000000000000e+00,5.284552795359331867e-09,2.921128050559218536e-08,9.959623217582702637e-01,-1.645259372889995575e-02,-1.926455646753311157e-02
8.154000000000000000e+03,1.130000019073486328e+01,4.000000000000000000e+00,5.332215113895699687e-09,2.974535284749890707e-08,9.959617853164672852e-01,-1.645310036838054657e-02,-1.926240697503089905e-02
8.155000000000000000e+03,1.139999961853027344e+01,4.000000000000000000e+00,5.379876544253647808e-09,3.028418049666470324e-08,9.959611892700195312e-01,-1.645370200276374817e-02,-1.925987564027309418e-02
8.156000000000000000e+03,1.150000000000000000e+01,4.000000000000000000e+00,5.427538418700805778e-09,3.082777055851693149e-08,9.959605336189270020e-01,-1.645437814295291901e-02,-1.925775036215782166e-02
8.157000000000000000e+03,1.160000038146972656e+01,4.000000000000000000e+00,5.475200293147963748e-09,3.137612125669875240e-08,9.959599375724792480e-01,-1.645511202514171600e-02,-1.925547048449516296e-02
8.158000000000000000e+03,1.169999980926513672e+01,4.000000000000000000e+00,5.522861723505911868e-09,3.192922548578280839e-08,9.959592819213867188e-01,-1.645588874816894531e-02,-1.925305090844631195e-02
8.159000000000000000e+03,1.180000019073486328e+01,4.000000000000000000e+00,5.570523597953069839e-09,3.248709390391013585e-08,9.959586262702941895e-01,-1.645669713616371155e-02,-1.925107650458812714e-02
8.160000000000000000e+03,1.189999961853027344e+01,4.000000000000000000e+00,5.618185028311017959e-09,3.304971585293969838e-08,9.959580302238464355e-01,-1.645752228796482086e-02,-1.924878917634487152e-02
8.161000000000000000e+03,1.200000000000000000e+01,4.000000000000000000e+00,5.665846902758175929e-09,3.361710199101253238e-08,9.959574341773986816e-01,-1.645835675299167633e-02,-1.924696192145347595e-02
8.162000000000000000e+03,1.210000038146972656e+01,4.000000000000000000e+00,5.713508777205333899e-09,3.418924876541495905e-08,9.959568381309509277e-01,-1.645919121801853180e-02,-1.924502663314342499e-02
8.163000000000000000e+03,1.219999980926513672e+01,4.000000000000000000e+00,5.761170207563282020e-09,3.476614907071962079e-08,9.959562420845031738e-01,-1.646002009510993958e-02,-1.924298517405986786e-02
8.164000000000000000e+03,1.230000019073486328e+01,4.000000000000000000e+00,5.808831637921230140e-09,3.534781356506755401e-08,9.959557056427001953e-01,-1.646083593368530273e-02,-1.924141496419906616e-02
8.165000000000000000e+03,1.239999961853027344e+01,4.000000000000000000e+00,5.856493068279178260e-09,3.593423159031772229e-08,9.959551692008972168e-01,-1.646163314580917358e-02,-1.923955045640468597e-02
8.166000000000000000e+03,1.250000000000000000e+01,4.000000000000000000e+00,5.904154942726336230e-09,3.652541380461116205e-08,9.959546327590942383e-01,-1.646240986883640289e-02,-1.923816092312335968e-02
8.167000000000000000e+03,1.260000038146972656e+01,4.000000000000000000e+00,5.951816817173494201e-09,3.712135310252051568e-08,9.959541559219360352e-01,-1.646316237747669220e-02,-1.923666708171367645e-02
8.168000000000000000e+03,1.269999980926513672e+01,4.000000000000000000e+00,5.999477803442232471e-09,3.772204948404578317e-08,9.959536790847778320e-01,-1.646388880908489227e-02,-1.923506893217563629e-02
8.169000000000000000e+03,1.280000019073486328e+01,4.000000000000000000e+00,6.047139677889390441e-09,3.832750650190064334e-08,9.959532618522644043e-01,-1.646458543837070465e-02,-1.923394203186035156e-02
8.170000000000000000e+03,1.289999961853027344e+01,4.000000000000000000e+00,6.094801108247338561e-09,3.893772060337141738e-08,9.959528446197509766e-01,-1.646525226533412933e-02,-1.923251338303089142e-02
8.171000000000000000e+03,1.300000000000000000e+01,4.000000000000000000e+00,6.142462538605286682e-09,3.955269889388546289e-08,9.959524273872375488e-01,-1.646588742733001709e-02,-1.923155039548873901e-02
8.172000000000000000e+03,1.310000038146972656e+01,4.000000000000000000e+00,6.190124413052444652e-09,4.017243426801542228e-08,9.959520697593688965e-01,-1.646649092435836792e-02,-1.923047378659248352e-02
8.173000000000000000e+03,1.319999980926513672e+01,4.000000000000000000e+00,6.237785843410392772e-09,4.079692672576129553e-08,9.959517121315002441e-01,-1.646706089377403259e-02,-1.922928169369697571e-02
8.174000000000000000e+03,1.330000019073486328e+01,4.000000000000000000e+00,6.285447273768340892e-09,4.142617981983676145e-08,9.959514141082763672e-01,-1.646760106086730957e-02,-1.922854408621788025e-02
8.175000000000000000e+03,1.339999961853027344e+01,4.000000000000000000e+00,6.333108704126289012e-09,4.206018999752814125e-08,9.959511160850524902e-01,-1.646810770034790039e-02,-1.922748982906341553e-02
8.176000000000000000e+03,1.350000000000000000e+01,4.000000000000000000e+00,6.380770134484237133e-09,4.269896436426279251e-08,9.959508180618286133e-01,-1.646858267486095428e-02,-1.922688633203506470e-02
8.177000000000000000e+03,1.360000038146972656e+01,4.000000000000000000e+00,6.428432008931395103e-09,4.334249581461335765e-08,9.959505796432495117e-01,-1.646902598440647125e-02,-1.922615058720111847e-02
8.178000000000000000e+03,1.369999980926513672e+01,4.000000000000000000e+00,6.476092995200133373e-09,4.399078079586615786e-08,9.959503412246704102e-01,-1.646943762898445129e-02,-1.922528073191642761e-02
8.179000000000000000e+03,1.380000019073486328e+01,4.000000000000000000e+00,6.523754869647291343e-09,4.464383351887590834e-08,9.959501028060913086e-01,-1.646981760859489441e-02,-1.922484859824180603e-02
8.180000000000000000e+03,1.389999961853027344e+01,4.000000000000000000e+00,6.571415855916029614e-09,4.530163622007421509e-08,9.959499239921569824e-01,-1.647016778588294983e-02,-1.922408118844032288e-02
8.181000000000000000e+03,1.400000000000000000e+01,4.000000000000000000e+00,6.619077730363187584e-09,4.596420666302947211e-08,9.959497451782226562e-01,-1.647048629820346832e-02,-1.922374404966831207e-02
8.182000000000000000e+03,1.410000038146972656e+01,4.000000000000000000e+00,6.666739160721135704e-09,4.663153418960064300e-08,9.959496259689331055e-01,-1.647077500820159912e-02,-1.922325789928436279e-02
8.183000000000000000e+03,1.419999980926513672e+01,4.000000000000000000e+00,6.714400591079083824e-09,4.730361524707404897e-08,9.959494471549987793e-01,-1.647103205323219299e-02,-1.922261714935302734e-02
8.184000000000000000e+03,1.430000019073486328e+01,4.000000000000000000e+00,6.762062021437031945e-09,4.798046404630440520e-08,9.959493279457092285e-01,-1.647125743329524994e-02,-1.922239363193511963e-02
8.185000000000000000e+03,1.439999961853027344e+01,4.000000000000000000e+00,6.809723451794980065e-09,4.866206282372331771e-08,9.959492683410644531e-01,-1.647144928574562073e-02,-1.922181621193885803e-02
8.186000000000000000e+03,1.450000000000000000e+01,4.000000000000000000e+00,6.857384882152928185e-09,4.934842579018550168e-08,9.959491491317749023e-01,-1.647160574793815613e-02,-1.922164857387542725e-02
8.187000000000000000e+03,1.460000038146972656e+01,4.000000000000000000e+00,6.905046756600086155e-09,5.003955294569095713e-08,9.959490895271301270e-01,-1.647172681987285614e-02,-1.922130957245826721e-02
8.188000000000000000e+03,1.469999980926513672e+01,4.000000000000000000e+00,6.952707742868824425e-09,5.073542652667129005e-08,9.959490299224853516e-01,-1.647180691361427307e-02,-1.922079548239707947e-02
8.189000000000000000e+03,1.480000019073486328e+01,4.000000000000000000e+00,7.000369617315982396e-09,5.143607140212225204e-08,9.959489703178405762e-01,-1.647184602916240692e-02,-1.922067627310752869e-02
8.190000000000000000e+03,1.489999961853027344e+01,4.000000000000000000e+00,7.048030603584720666e-09,5.214146625576177030e-08,9.959489107131958008e-01,-1.647183857858181000e-02,-1.922017894685268402e-02
8.191000000000000000e+03,1.500000000000000000e+01,4.000000000000000000e+00,7.095692033942668786e-09,5.285162529844456003e-08,9.959488511085510254e-01,-1.647177897393703461e-02,-1.922006718814373016e-02
8.192000000000000000e+03,1.510000038146972656e+01,4.000000000000000000e+00,7.143353908389826756e-09,5.356654497745694243e-08,9.959487915039062500e-01,-1.647166162729263306e-02,-1.921975426375865936e-02
8.193000000000000000e+03,1.519999980926513672e+01,4.000000000000000000e+00,7.191014894658565026e-09,5.428621818737155991e-08,9.959487915039062500e-01,-1.647147722542285919e-02,-1.921923644840717316e-02
8.194000000000000000e+03,1.530000019073486328e+01,4.000000000000000000e+00,7.238676769105722997e-09,5.501065558632944885e-08,9.959487318992614746e-01,-1.647122018039226532e-02,-1.921908184885978699e-02
8.195000000000000000e+03,1.539999961853027344e+01,4.000000000000000000e+00,7.286337755374461267e-09,5.573984651618957287e-08,9.959487318992614746e-01,-1.647087931632995605e-02,-1.921851374208927155e-02
8.196000000000000000e+03,1.550000000000000000e+01,4.000000000000000000e+00,7.333999629821619237e-09,5.647380163509296835e-08,9.959486722946166992e-01,-1.647043973207473755e-02,-1.921828836202621460e-02
8.197000000000000000e+03,1.560000038146972656e+01,4.000000000000000000e+00,7.381661060179567357e-09,5.721251739032595651e-08,9.959486126899719238e-01,-1.646989211440086365e-02,-1.921782083809375763e-02
8.198000000000000000e+03,1.569999980926513672e+01,4.000000000000000000e+00,7.429322046448305628e-09,5.795598667646117974e-08,9.959484934806823730e-01,-1.646921597421169281e-02,-1.921709813177585602e-02
8.199000000000000000e+03,1.580000019073486328e+01,4.000000000000000000e+00,7.476983476806253748e-09,5.870422015163967444e-08,9.959483742713928223e-01,-1.646839268505573273e-02,-1.921668276190757751e-02
8.200000000000000000e+03,1.589999961853027344e+01,4.000000000000000000e+00,7.524644907164201868e-09,5.945720360500672541e-08,9.959482550621032715e-01,-1.646740362048149109e-02,-1.921579055488109589e-02
8.201000000000000000e+03,1.600000000000000000e+01,4.000000000000000000e+00,7.572306337522149988e-09,6.021495835284440545e-08,9.959480166435241699e-01,-1.646621897816658020e-02,-1.921517215669155121e-02
8.202000000000000000e+03,1.610000038146972656e+01,4.000000000000000000e+00,7.619967767880098108e-09,6.097747018429799937e-08,9.959477186203002930e-01,-1.646481640636920929e-02,-1.921423338353633881e-02
8.203000000000000000e+03,1.620000076293945312e+01,4.000000000000000000e+00,7.667629198238046229e-09,6.174473554665382835e-08,9.959473609924316406e-01,-1.646315865218639374e-02,-1.921314187347888947e-02
8.204000000000000000e+03,1.629999923706054688e+01,4.000000000000000000e+00,7.715289740417574649e-09,6.251675443991189240e-08,9.959469437599182129e-01,-1.646121218800544739e-02,-1.921149156987667084e-02
8.205000000000000000e+03,1.639999961853027344e+01,4.000000000000000000e+00,7.762951170775522769e-09,6.329354107492690673e-08,9.959463477134704590e-01,-1.645893417298793793e-02,-1.921040751039981842e-02
8.206000000000000000e+03,1.650000000000000000e+01,4.000000000000000000e+00,7.810612601133470889e-09,6.407508834627151373e-08,9.959455728530883789e-01,-1.645627990365028381e-02,-1.920870691537857056e-02
8.207000000000000000e+03,1.660000038146972656e+01,4.000000000000000000e+00,7.858273143312999309e-09,6.486139625394571340e-08,9.959446191787719727e-01,-1.645319722592830658e-02,-1.920674182474613190e-02
8.208000000000000000e+03,1.670000076293945312e+01,4.000000000000000000e+00,7.905934573670947429e-09,6.565246479794950574e-08,9.959434270858764648e-01,-1.644962839782238007e-02,-1.920447498559951782e-02
8.209000000000000000e+03,1.679999923706054688e+01,4.000000000000000000e+00,7.953594227672056149e-09,6.644827266200081795e-08,9.959419369697570801e-01,-1.644551195204257965e-02,-1.920148916542530060e-02
8.210000000000000000e+03,1.689999961853027344e+01,4.000000000000000000e+00,8.001255658030004270e-09,6.724885537323643803e-08,9.959400892257690430e-01,-1.644077710807323456e-02,-1.919889263808727264e-02
8.211000000000000000e+03,1.700000000000000000e+01,4.000000000000000000e+00,8.048916200209532690e-09,6.805419872080165078e-08,9.959378242492675781e-01,-1.643534749746322632e-02,-1.919549144804477692e-02
8.212000000000000000e+03,1.710000038146972656e+01,4.000000000000000000e+00,8.096575854210641410e-09,6.886430270469645620e-08,9.959350228309631348e-01,-1.642914116382598877e-02,-1.919163018465042114e-02
8.213000000000000000e+03,1.720000076293945312e+01,4.000000000000000000e+00,8.144236396390169830e-09,6.967916732492085430e-08,9.959315657615661621e-01,-1.642206870019435883e-02,-1.918726600706577301e-02
8.214000000000000000e+03,1.729999923706054688e+01,4.000000000000000000e+00,8.191895162212858850e-09,7.049877126519277226e-08,9.959273934364318848e-01,-1.641403511166572571e-02,-1.918197423219680786e-02
8.215000000000000000e+03,1.739999961853027344e+01,4.000000000000000000e+00,8.239554816213967570e-09,7.132315005264899810e-08,9.959223270416259766e-01,-1.640494354069232941e-02,-1.917687803506851196e-02
8.216000000000000000e+03,1.750000000000000000e+01,4.000000000000000000e+00,8.287213582036656589e-09,7.215228947643481661e-08,9.959161877632141113e-01,-1.639468967914581299e-02,-1.917079649865627289e-02
8.217000000000000000e+03,1.760000038146972656e+01,4.000000000000000000e+00,8.334872347859345609e-09,7.298618953655022779e-08,9.959087371826171875e-01,-1.638317294418811798e-02,-1.916410773992538452e-02
8.218000000000000000e+03,1.770000076293945312e+01,4.000000000000000000e+00,8.382530225503614929e-09,7.382485023299523164e-08,9.958997368812561035e-01,-1.637029834091663361e-02,-1.915682293474674225e-02
8.219000000000000000e+03,1.779999923706054688e+01,4.000000000000000000e+00,8.430186326791044849e-09,7.466825024948775535e-08,9.958888888359069824e-01,-1.635598018765449524e-02,-1.914860121905803680e-02
8.220000000000000000e+03,1.789999961853027344e+01,4.000000000000000000e+00,8.477842428078474768e-09,7.551642511316458695e-08,9.958758354187011719e-01,-1.634015329182147980e-02,-1.914067938923835754e-02
8.221000000000000000e+03,1.800000000000000000e+01,4.000000000000000000e+00,8.525497641187484987e-09,7.636936061317101121e-08,9.958601593971252441e-01,-1.632279157638549805e-02,-1.913205161690711975e-02
8.222000000000000000e+03,1.810000038146972656e+01,4.000000000000000000e+00,8.573151966118075507e-09,7.722705674950702814e-08,9.958413243293762207e-01,-1.630392484366893768e-02,-1.912332326173782349e-02
8.223000000000000000e+03,1.820000076293945312e+01,4.000000000000000000e+00,8.620804514691826625e-09,7.808950641674528015e-08,9.958188533782958984e-01,-1.628366671502590179e-02,-1.911482028663158417e-02
8.224000000000000000e+03,1.829999923706054688e+01,4.000000000000000000e+00,8.668454398730318644e-09,7.895670250945840962e-08,9.957919716835021973e-01,-1.626226305961608887e-02,-1.910662092268466949e-02
8.225000000000000000e+03,1.839999961853027344e+01,4.000000000000000000e+00,8.716104282768810663e-09,7.982867344935584697e-08,9.957600831985473633e-01,-1.624014787375926971e-02,-1.910050958395004272e-02
8.226000000000000000e+03,1.850000000000000000e+01,4.000000000000000000e+00,8.763751502272043581e-09,8.070539792015551939e-08,9.957222938537597656e-01,-1.621803082525730133e-02,-1.909617707133293152e-02
8.227000000000000000e+03,1.860000038146972656e+01,4.000000000000000000e+00,8.811396057240017399e-09,8.158688302728478448e-08,9.956777691841125488e-01,-1.619701087474822998e-02,-1.909510418772697449e-02
8.228000000000000000e+03,1.870000076293945312e+01,4.000000000000000000e+00,8.859037947672732116e-09,8.247312166531628463e-08,9.956257343292236328e-01,-1.617872901260852814e-02,-1.909867487847805023e-02
8.229000000000000000e+03,1.879999923706054688e+01,4.000000000000000000e+00,8.906676285391768033e-09,8.336409962339530466e-08,9.955654740333557129e-01,-1.616556197404861450e-02,-1.910818368196487427e-02
8.230000000000000000e+03,1.889999961853027344e+01,4.000000000000000000e+00,8.954311958575544850e-09,8.425985953408599016e-08,9.954966902732849121e-01,-1.616085693240165710e-02,-1.912670210003852844e-02
8.231000000000000000e+03,1.900000000000000000e+01,4.000000000000000000e+00,9.001944079045642866e-09,8.516036587025155313e-08,9.954196810722351074e-01,-1.616916991770267487e-02,-1.915509626269340515e-02
8.232000000000000000e+03,1.910000038146972656e+01,4.000000000000000000e+00,9.049572646802062081e-09,8.606562573731935117e-08,9.953356385231018066e-01,-1.619643904268741608e-02,-1.919553242623806000e-02
8.233000000000000000e+03,1.920000076293945312e+01,4.000000000000000000e+00,9.097197661844802496e-09,8.697563913528938428e-08,9.952473044395446777e-01,-1.624996773898601532e-02,-1.924898289144039154e-02
8.234000000000000000e+03,1.929999923706054688e+01,4.000000000000000000e+00,9.144818235995444411e-09,8.789039185330693726e-08,9.951590895652770996e-01,-1.633798889815807343e-02,-1.931432448327541351e-02
8.235000000000000000e+03,1.939999961853027344e+01,4.000000000000000000e+00,9.192438810146086325e-09,8.880990520765408291e-08,9.950776696205139160e-01,-1.646853424608707428e-02,-1.938909105956554413e-02
8.236000000000000000e+03,1.950000000000000000e+01,4.000000000000000000e+00,9.240058496118308540e-09,8.973417919833082124e-08,9.950110912322998047e-01,-1.664743386209011078e-02,-1.946445554494857788e-02
8.237000000000000000e+03,1.960000038146972656e+01,4.000000000000000000e+00,9.287679070268950454e-09,9.066320671990979463e-08,9.949672818183898926e-01,-1.687554083764553070e-02,-1.952846348285675049e-02
8.238000000000000000e+03,1.970000076293945312e+01,4.000000000000000000e+00,9.335302308954851469e-09,9.159699487781836069e-08,9.949516654014587402e-01,-1.714590378105640411e-02,-1.956487260758876801e-02
8.239000000000000000e+03,1.979999923706054688e+01,4.000000000000000000e+00,9.382929988532850984e-09,9.253552235577444662e-08,9.949635863304138184e-01,-1.744217798113822937e-02,-1.955595239996910095e-02
8.240000000000000000e+03,1.989999961853027344e+01,4.000000000000000000e+00,9.430564773538208101e-09,9.347883889176955563e-08,9.949944019317626953e-01,-1.773975044488906860e-02,-1.948905736207962036e-02
8.241000000000000000e+03,2.000000000000000000e+01,4.000000000000000000e+00,9.478203999435663718e-09,9.442693027494897251e-08,9.950277209281921387e-01,-1.800997182726860046e-02,-1.935786753892898560e-02
8.242000000000000000e+03,0.000000000000000000e+00,4.099999904632568359e+00,2.830757702848398531e-38,-2.735158038755537995e-39,9.007453918457031250e-01,2.702236175537109375e-01,-2.976720631122589111e-01
8.243000000000000000e+03,1.000000014901161194e-01,4.099999904632568359e+00,3.903230169632898594e-11,-3.685463739744321288e-11,8.989428281784057617e-01,2.642149329185485840e-01,-3.267153203487396240e-01
8.244000000000000000e+03,2.000000029802322388e-01,4.099999904632568359e+00,7.822442693594666707e-11,-6.743360730920855417e-11,8.993489146232604980e-01,2.543811202049255371e-01,-3.057320415973663330e-01
8.245000000000000000e+03,3.000000119209289551e-01,4.099999904632568359e+00,1.176814617975807664e-10,-9.183317301042492886e-11,9.008690118789672852e-01,2.409048378467559814e-01,-2.860149443149566650e-01
8.246000000000000000e+03,4.000000059604644775e-01,4.099999904632568359e+00,1.574789881830795935e-10,-1.100489560590389715e-10,9.031515121459960938e-01,2.246776372194290161e-01,-2.666653692722320557e-01
8.247000000000000000e+03,5.000000000000000000e-01,4.099999904632568359e+00,1.976522417956871891e-10,-1.220139128621511304e-10,9.056542515754699707e-01,2.067190557718276978e-01,-2.471890151500701904e-01
8.248000000000000000e+03,6.000000238418579102e-01,4.099999904632568359e+00,2.381978225773906388e-10,-1.276362349145188091e-10,9.078510999679565430e-01,1.879805922508239746e-01,-2.274702936410903931e-01
8.249000000000000000e+03,6.999999880790710449e-01,4.099999904632568359e+00,2.790833952825977349e-10,-1.268286586864064702e-10,9.093673229217529297e-01,1.692336052656173706e-01,-2.076605707406997681e-01
8.250000000000000000e+03,8.000000119209289551e-01,4.099999904632568359e+00,3.202601794871640095e-10,-1.195260279640564249e-10,9.100229144096374512e-01,1.510356366634368896e-01,-1.880463510751724243e-01
8.251000000000000000e+03,8.999999761581420898e-01,4.099999904632568359e+00,3.616736077294291363e-10,-1.056926629550147823e-10,9.098070263862609863e-01,1.337481588125228882e-01,-1.689429730176925659e-01
8.252000000000000000e+03,1.000000000000000000e+00,4.099999904632568359e+00,4.032712219714795765e-10,-8.532263784388760541e-11,9.088222384452819824e-01,1.175767704844474792e-01,-1.506297290325164795e-01
8.253000000000000000e+03,1.100000023841857910e+00,4.099999904632568359e+00,4.450066426464616143e-10,-5.843649175663045980e-11,9.072284102439880371e-01,1.026148349046707153e-01,-1.333211660385131836e-01
8.254000000000000000e+03,1.200000047683715820e+00,4.099999904632568359e+00,4.868417335934793755e-10,-2.507626051251321542e-11,9.052008390426635742e-01,8.888061344623565674e-02,-1.171625107526779175e-01
8.255000000000000000e+03,1.299999952316284180e+00,4.099999904632568359e+00,5.287464910352923653e-10,1.469941009191177983e-11,9.029043316841125488e-01,7.634555548429489136e-02,-1.022370457649230957e-01
8.256000000000000000e+03,1.399999976158142090e+00,4.099999904632568359e+00,5.706985994891056180e-10,6.082001569041040057e-11,9.004804491996765137e-01,6.495399773120880127e-02,-8.857805281877517700e-02
8.257000000000000000e+03,1.500000000000000000e+00,4.099999904632568359e+00,6.126820717433645314e-10,1.132066870801473613e-10,8.980433344841003418e-01,5.463637039065361023e-02,-7.618068903684616089e-02
8.258000000000000000e+03,1.600000023841857910e+00,4.099999904632568359e+00,6.546860831235790101e-10,1.717754549712680046e-10,8.956799507141113281e-01,4.531747102737426758e-02,-6.501279771327972412e-02
8.259000000000000000e+03,1.700000047683715820e+00,4.099999904632568359e+00,6.967040833139037659e-10,2.364396456400186253e-10,8.934532403945922852e-01,3.692144900560379028e-02,-5.502333864569664001e-02
8.260000000000000000e+03,1.799999952316284180e+00,4.099999904632568359e+00,7.387322975560550731e-10,3.071116139174989712e-10,8.914058208465576172e-01,2.937470190227031708e-02,-4.614893347024917603e-02
8.261000000000000000e+03,1.899999976158142090e+00,4.099999904632568359e+00,7.807695046047058440e-10,3.837047068966370489e-10,8.895639181137084961e-01,2.260729670524597168e-02,-3.831895440816879272e-02
8.262000000000000000e+03,2.000000000000000000e+00,4.099999904632568359e+00,8.228159265044610038e-10,4.661336316935660307e-10,8.879408836364746094e-01,1.655371487140655518e-02,-3.145886957645416260e-02
8.263000000000000000e+03,2.099999904632568359e+00,4.099999904632568359e+00,8.648727845006476400e-10,5.543156489373757267e-10,8.865402340888977051e-01,1.115297991782426834e-02,-2.549310773611068726e-02
8.264000000000000000e+03,2.200000047683715820e+00,4.099999904632568359e+00,9.069420769947100780e-10,6.481715719708347478e-10,8.853583931922912598e-01,6.348546594381332397e-03,-2.034690044820308685e-02
8.265000000000000000e+03,2.299999952316284180e+00,4.099999904632568359e+00,9.490258578992438743e-10,7.476249064275464207e-10,8.843865394592285156e-01,2.088148146867752075e-03,-1.594722829759120941e-02
8.266000000000000000e+03,2.400000095367431641e+00,4.099999904632568359e+00,9.911266252160544354e-10,8.526039319001199601e-10,8.836123347282409668e-01,-1.676584128290414810e-03,-1.222434267401695251e-02
8.267000000000000000e+03,2.500000000000000000e+00,4.099999904632568359e+00,1.033246488368888549e-09,9.630399810944823003e-10,8.830213546752929688e-01,-4.990323912352323532e-03,-9.111559018492698669e-03
8.268000000000000000e+03,2.599999904632568359e+00,4.099999904632568359e+00,1.075387667803795466e-09,1.078868994142112570e-09,8.825976252555847168e-01,-7.894405163824558258e-03,-6.546379998326301575e-03
8.269000000000000000e+03,2.700000047683715820e+00,4.099999904632568359e+00,1.117552161922219511e-09,1.200031407577739628e-09,8.823249936103820801e-01,-1.042704656720161438e-02,-4.470161627978086472e-03
8.270000000000000000e+03,2.799999952316284180e+00,4.099999904632568359e+00,1.159741414014092697e-09,1.326470377982502669e-09,8.821871280670166016e-01,-1.262356713414192200e-02,-2.828206401318311691e-03
8.271000000000000000e+03,2.900000095367431641e+00,4.099999904632568359e+00,1.201956867369347037e-09,1.458134391008059083e-09,8.821681737899780273e-01,-1.451664138585329056e-02,-1.570247812196612358e-03
8.272000000000000000e+03,3.000000000000000000e+00,4.099999904632568359e+00,1.244199410166402231e-09,1.594974596841325365e-09,8.822529911994934082e-01,-1.613643392920494080e-02,-6.496047135442495346e-04
8.273000000000000000e+03,3.099999904632568359e+00,4.099999904632568359e+00,1.286469819561375516e-09,1.736946697583618970e-09,8.824272155761718750e-01,-1.751079782843589783e-02,-2.382897946517914534e-05
8.274000000000000000e+03,3.200000047683715820e+00,4.099999904632568359e+00,1.328768872710384130e-09,1.884009837027633694e-09,8.826776742935180664e-01,-1.866541244089603424e-02,3.459670406300574541e-04
8.275000000000000000e+03,3.299999952316284180e+00,4.099999904632568359e+00,1.371096347568823148e-09,2.036125934523624892e-09,8.829920291900634766e-01,-1.962389610707759857e-02,4.952818271704018116e-04
8.276000000000000000e+03,3.400000095367431641e+00,4.099999904632568359e+00,1.413452688225902421e-09,2.193261128269341498e-09,8.833591341972351074e-01,-2.040796726942062378e-02,4.559105145744979382e-04
8.277000000000000000e+03,3.500000000000000000e+00,4.099999904632568359e+00,1.455837450592412097e-09,2.355382999752464457e-09,8.837688565254211426e-01,-2.103753015398979187e-02,2.569080679677426815e-04
8.278000000000000000e+03,3.599999904632568359e+00,4.099999904632568359e+00,1.498250301601444789e-09,2.522463571352773215e-09,8.842121362686157227e-01,-2.153079770505428314e-02,-7.596968498546630144e-05
8.279000000000000000e+03,3.700000047683715820e+00,4.099999904632568359e+00,1.540690908186093111e-09,2.694477085896096469e-09,8.846807479858398438e-01,-2.190439216792583466e-02,-5.195560515858232975e-04
8.280000000000000000e+03,3.799999952316284180e+00,4.099999904632568359e+00,1.583158493190239824e-09,2.871399562565102315e-09,8.851675987243652344e-01,-2.217344008386135101e-02,-1.053071930073201656e-03
8.281000000000000000e+03,3.900000095367431641e+00,4.099999904632568359e+00,1.625652501502372616e-09,3.053210351211532725e-09,8.856662511825561523e-01,-2.235168032348155975e-02,-1.658435561694204807e-03
8.282000000000000000e+03,4.000000000000000000e+00,4.099999904632568359e+00,1.668171822899466861e-09,3.239889689865549371e-09,8.861712813377380371e-01,-2.245154045522212982e-02,-2.319317543879151344e-03
8.283000000000000000e+03,4.099999904632568359e+00,4.099999904632568359e+00,1.710715680225405322e-09,3.431420925181782877e-09,8.866778016090393066e-01,-2.248423360288143158e-02,-3.021712880581617355e-03
8.284000000000000000e+03,4.199999809265136719e+00,4.099999904632568359e+00,1.753283296324070761e-09,3.627788958127098340e-09,8.871817588806152344e-01,-2.245984971523284912e-02,-3.753219731152057648e-03
8.285000000000000000e+03,4.300000190734863281e+00,4.099999904632568359e+00,1.795873671994741017e-09,3.828981132159015033e-09,8.876795768737792969e-01,-2.238742448389530182e-02,-4.503211937844753265e-03
8.286000000000000000e+03,4.400000095367431641e+00,4.099999904632568359e+00,1.838485585992089000e-09,4.034983014378212829e-09,8.881683349609375000e-01,-2.227503061294555664e-02,-5.262175574898719788e-03
8.287000000000000000e+03,4.500000000000000000e+00,4.099999904632568359e+00,1.881118150137695011e-09,4.245785945045099652e-09,8.886455893516540527e-01,-2.212984673678874969e-02,-6.022490561008453369e-03
8.288000000000000000e+03,4.599999904632568359e+00,4.099999904632568359e+00,1.923770254208534425e-09,4.461380154197058800e-09,8.891093134880065918e-01,-2.195823378860950470e-02,-6.777375005185604095e-03
8.289000000000000000e+03,4.699999809265136719e+00,4.099999904632568359e+00,1.966441232070792466e-09,4.681757204139103123e-09,8.895578980445861816e-01,-2.176580019295215607e-02,-7.521214429289102554e-03
8.290000000000000000e+03,4.800000190734863281e+00,4.099999904632568359e+00,2.009129751456839585e-09,4.906911321711504570e-09,8.899900317192077637e-01,-2.155746892094612122e-02,-8.249444887042045593e-03
8.291000000000000000e+03,4.900000095367431641e+00,4.099999904632568359e+00,2.051834702143651157e-09,5.136834069219275989e-09,8.904048800468444824e-01,-2.133754082024097443e-02,-8.957989513874053955e-03
8.292000000000000000e+03,5.000000000000000000e+00,4.099999904632568359e+00,2.094555417997412405e-09,5.371521449859528730e-09,8.908016681671142578e-01,-2.110975049436092377e-02,-9.644078090786933899e-03
8.293000000000000000e+03,5.099999904632568359e+00,4.099999904632568359e+00,2.137290788795098706e-09,5.610968578650954441e-09,8.911800384521484375e-01,-2.087731659412384033e-02,-1.030524726957082748e-02
8.294000000000000000e+03,5.199999809265136719e+00,4.099999904632568359e+00,2.180039926358290359e-09,5.855171902879874324e-09,8.915397524833679199e-01,-2.064300142228603363e-02,-1.093970332294702530e-02
8.295000000000000000e+03,5.300000190734863281e+00,4.099999904632568359e+00,2.222802164553172588e-09,6.104129646189448977e-09,8.918807506561279297e-01,-2.040914446115493774e-02,-1.154625136405229568e-02
8.296000000000000000e+03,5.400000095367431641e+00,4.099999904632568359e+00,2.265576171112115844e-09,6.357836035419950349e-09,8.922031521797180176e-01,-2.017772570252418518e-02,-1.212377287447452545e-02
8.297000000000000000e+03,5.500000000000000000e+00,4.099999904632568359e+00,2.308361501945910277e-09,6.616291070571378441e-09,8.925071358680725098e-01,-1.995038613677024841e-02,-1.267207693308591843e-02
8.298000000000000000e+03,5.599999904632568359e+00,4.099999904632568359e+00,2.351157268876136186e-09,6.879491643019264302e-09,8.927931189537048340e-01,-1.972847618162631989e-02,-1.319094002246856689e-02
8.299000000000000000e+03,5.699999809265136719e+00,4.099999904632568359e+00,2.393962805768978797e-09,7.147437752763607932e-09,8.930615186691284180e-01,-1.951308175921440125e-02,-1.368049904704093933e-02
8.300000000000000000e+03,5.800000190734863281e+00,4.099999904632568359e+00,2.436777446490623333e-09,7.420128955715199481e-09,8.933128714561462402e-01,-1.930506713688373566e-02,-1.414121221750974655e-02
8.301000000000000000e+03,5.900000095367431641e+00,4.099999904632568359e+00,2.479600080818045171e-09,7.697561699160360149e-09,8.935477137565612793e-01,-1.910508982837200165e-02,-1.457336731255054474e-02
8.302000000000000000e+03,6.000000000000000000e+00,4.099999904632568359e+00,2.522430708751244310e-09,7.979737759455929336e-09,8.937666416168212891e-01,-1.891363598406314850e-02,-1.497795432806015015e-02
8.303000000000000000e+03,6.099999904632568359e+00,4.099999904632568359e+00,2.565268220067196125e-09,8.266655804334277491e-09,8.939703702926635742e-01,-1.873103715479373932e-02,-1.535573136061429977e-02
8.304000000000000000e+03,6.199999809265136719e+00,4.099999904632568359e+00,2.608112392721295691e-09,8.558316721973824315e-09,8.941594958305358887e-01,-1.855750009417533875e-02,-1.570764183998107910e-02
8.305000000000000000e+03,6.300000190734863281e+00,4.099999904632568359e+00,2.650962560579728233e-09,8.854720512374569807e-09,8.943347930908203125e-01,-1.839311048388481140e-02,-1.603479497134685516e-02
8.306000000000000000e+03,6.400000095367431641e+00,4.099999904632568359e+00,2.693818279553283901e-09,9.155865399179674569e-09,8.944968581199645996e-01,-1.823786832392215729e-02,-1.633799262344837189e-02
8.307000000000000000e+03,6.500000000000000000e+00,4.099999904632568359e+00,2.736678883508147919e-09,9.461754046924397699e-09,8.946464657783508301e-01,-1.809168606996536255e-02,-1.661861874163150787e-02
8.308000000000000000e+03,6.599999904632568359e+00,4.099999904632568359e+00,2.779543928355110438e-09,9.772385567430319497e-09,8.947842121124267578e-01,-1.795441657304763794e-02,-1.687771454453468323e-02
8.309000000000000000e+03,6.699999809265136719e+00,4.099999904632568359e+00,2.822413414094171458e-09,1.008775996069743996e-08,8.949109315872192383e-01,-1.782585121691226959e-02,-1.711642742156982422e-02
8.310000000000000000e+03,6.800000190734863281e+00,4.099999904632568359e+00,2.865286896636121128e-09,1.040788077943943790e-08,8.950271010398864746e-01,-1.770574226975440979e-02,-1.733597740530967712e-02
8.311000000000000000e+03,6.900000095367431641e+00,4.099999904632568359e+00,2.908163709847144673e-09,1.073274535912105421e-08,8.951335549354553223e-01,-1.759380474686622620e-02,-1.753722503781318665e-02
8.312000000000000000e+03,7.000000000000000000e+00,4.099999904632568359e+00,2.951043409638032244e-09,1.106235458792070858e-08,8.952307701110839844e-01,-1.748972572386264801e-02,-1.772154122591018677e-02
8.313000000000000000e+03,7.099999904632568359e+00,4.099999904632568359e+00,2.993926218053388766e-09,1.139671024219524043e-08,8.953194618225097656e-01,-1.739317923784255981e-02,-1.788992062211036682e-02
8.314000000000000000e+03,7.199999809265136719e+00,4.099999904632568359e+00,3.036811468959399463e-09,1.173581232194464974e-08,8.954001665115356445e-01,-1.730381511151790619e-02,-1.804341003298759460e-02
8.315000000000000000e+03,7.300000190734863281e+00,4.099999904632568359e+00,3.079699162356064335e-09,1.207966349170419562e-08,8.954734206199645996e-01,-1.722128130495548248e-02,-1.818310655653476715e-02
8.316000000000000000e+03,7.400000095367431641e+00,4.099999904632568359e+00,3.122588854154173532e-09,1.242826108693861897e-08,8.955398201942443848e-01,-1.714522205293178558e-02,-1.830971613526344299e-02
8.317000000000000000e+03,7.500000000000000000e+00,4.099999904632568359e+00,3.165480322309122130e-09,1.278160688400475919e-08,8.955999016761779785e-01,-1.707527972757816315e-02,-1.842443645000457764e-02
8.318000000000000000e+03,7.599999904632568359e+00,4.099999904632568359e+00,3.208373566820910128e-09,1.313970177108103599e-08,8.956540226936340332e-01,-1.701109856367111206e-02,-1.852807216346263885e-02
8.319000000000000000e+03,7.699999809265136719e+00,4.099999904632568359e+00,3.251268143600327676e-09,1.350254663634586905e-08,8.957027792930603027e-01,-1.695233024656772614e-02,-1.862146332859992981e-02
8.320000000000000000e+03,7.800000190734863281e+00,4.099999904632568359e+00,3.294164274691979699e-09,1.387014414433451748e-08,8.957464694976806641e-01,-1.689863391220569611e-02,-1.870550215244293213e-02
8.321000000000000000e+03,7.900000095367431641e+00,4.099999904632568359e+00,3.337061516006656348e-09,1.424248985415488278e-08,8.957856297492980957e-01,-1.684967800974845886e-02,-1.878067106008529663e-02
8.322000000000000000e+03,8.000000000000000000e+00,4.099999904632568359e+00,3.379959645499752696e-09,1.461958820669906345e-08,8.958205580711364746e-01,-1.680514030158519745e-02,-1.884795352816581726e-02
8.323000000000000000e+03,8.100000381469726562e+00,4.099999904632568359e+00,3.422858885215873670e-09,1.500144009014547919e-08,8.958516716957092285e-01,-1.676471531391143799e-02,-1.890802569687366486e-02
8.324000000000000000e+03,8.199999809265136719e+00,4.099999904632568359e+00,3.465758569021204494e-09,1.538804106360203150e-08,8.958792090415954590e-01,-1.672810502350330353e-02,-1.896114461123943329e-02
8.325000000000000000e+03,8.300000190734863281e+00,4.099999904632568359e+00,3.508659141004955018e-09,1.577939734431765828e-08,8.959035873413085938e-01,-1.669502630829811096e-02,-1.900853589177131653e-02
8.326000000000000000e+03,8.399999618530273438e+00,4.099999904632568359e+00,3.551560157077915392e-09,1.617550537957868073e-08,8.959251046180725098e-01,-1.666521467268466949e-02,-1.905001699924468994e-02
8.327000000000000000e+03,8.500000000000000000e+00,4.099999904632568359e+00,3.594462061329295466e-09,1.657637049845561705e-08,8.959439396858215332e-01,-1.663841120898723602e-02,-1.908682845532894135e-02
8.328000000000000000e+03,8.600000381469726562e+00,4.099999904632568359e+00,3.637364409669885390e-09,1.698198914823478844e-08,8.959603905677795410e-01,-1.661437749862670898e-02,-1.911889389157295227e-02
8.329000000000000000e+03,8.699999809265136719e+00,4.099999904632568359e+00,3.680266535965870389e-09,1.739235955255935551e-08,8.959746956825256348e-01,-1.659288816154003143e-02,-1.914664916694164276e-02
8.330000000000000000e+03,8.800000190734863281e+00,4.099999904632568359e+00,3.723169550440275088e-09,1.780748881685667584e-08,8.959870338439941406e-01,-1.657372713088989258e-02,-1.917104981839656830e-02
8.331000000000000000e+03,8.899999618530273438e+00,4.099999904632568359e+00,3.766072342870074863e-09,1.822736983569939184e-08,8.959976434707641602e-01,-1.655669510364532471e-02,-1.919173821806907654e-02
8.332000000000000000e+03,9.000000000000000000e+00,4.099999904632568359e+00,3.808975801433689412e-09,1.865200971451486112e-08,8.960067033767700195e-01,-1.654160767793655396e-02,-1.920978538691997528e-02
8.333000000000000000e+03,9.100000381469726562e+00,4.099999904632568359e+00,3.851879259997303961e-09,1.908140667694624426e-08,8.960143327713012695e-01,-1.652828790247440338e-02,-1.922496221959590912e-02
8.334000000000000000e+03,9.199999809265136719e+00,4.099999904632568359e+00,3.894782718560918511e-09,1.951555539392302308e-08,8.960207700729370117e-01,-1.651657558977603912e-02,-1.923755742609500885e-02
8.335000000000000000e+03,9.300000190734863281e+00,4.099999904632568359e+00,3.937686621213742910e-09,1.995446474722939456e-08,8.960260748863220215e-01,-1.650631986558437347e-02,-1.924838311970233917e-02
8.336000000000000000e+03,9.399999618530273438e+00,4.099999904632568359e+00,3.980590079777357460e-09,2.039812763143800112e-08,8.960303664207458496e-01,-1.649737916886806488e-02,-1.925694942474365234e-02
8.337000000000000000e+03,9.500000000000000000e+00,4.099999904632568359e+00,4.023494426519391709e-09,2.084655115197620034e-08,8.960338234901428223e-01,-1.648962870240211487e-02,-1.926420815289020538e-02
8.338000000000000000e+03,9.600000381469726562e+00,4.099999904632568359e+00,4.066398329172216108e-09,2.129973175613031344e-08,8.960365653038024902e-01,-1.648294366896152496e-02,-1.926981098949909210e-02
8.339000000000000000e+03,9.699999809265136719e+00,4.099999904632568359e+00,4.109301787735830658e-09,2.175766589118666161e-08,8.960385918617248535e-01,-1.647721976041793823e-02,-1.927393861114978790e-02
8.340000000000000000e+03,9.800000190734863281e+00,4.099999904632568359e+00,4.152206134477864907e-09,2.222036243892944185e-08,8.960400223731994629e-01,-1.647235453128814697e-02,-1.927730441093444824e-02
8.341000000000000000e+03,9.899999618530273438e+00,4.099999904632568359e+00,4.195109593041479457e-09,2.268781074121761776e-08,8.960409760475158691e-01,-1.646825484931468964e-02,-1.927932538092136383e-02
8.342000000000000000e+03,1.000000000000000000e+01,4.099999904632568359e+00,4.238013495694303856e-09,2.316002323254906514e-08,8.960415124893188477e-01,-1.646483689546585083e-02,-1.928086392581462860e-02
8.343000000000000000e+03,1.010000038146972656e+01,4.099999904632568359e+00,4.280917842436338105e-09,2.363699280749642639e-08,8.960416913032531738e-01,-1.646202430129051208e-02,-1.928149908781051636e-02
8.344000000000000000e+03,1.019999980926513672e+01,4.099999904632568359e+00,4.323821300999952655e-09,2.411871591334602272e-08,8.960415124893188477e-01,-1.645974628627300262e-02,-1.928131841123104095e-02
8.345000000000000000e+03,1.030000019073486328e+01,4.099999904632568359e+00,4.366725203652777054e-09,2.460520320823889051e-08,8.960410952568054199e-01,-1.645793952047824860e-02,-1.928099989891052246e-02
8.346000000000000000e+03,1.039999961853027344e+01,4.099999904632568359e+00,4.409628662216391604e-09,2.509644225767715398e-08,8.960404992103576660e-01,-1.645654439926147461e-02,-1.927985809743404388e-02
8.347000000000000000e+03,1.050000000000000000e+01,4.099999904632568359e+00,4.452532120780006153e-09,2.559244549615868891e-08,8.960396647453308105e-01,-1.645551249384880066e-02,-1.927873864769935608e-02
8.348000000000000000e+03,1.060000038146972656e+01,4.099999904632568359e+00,4.495436023432830552e-09,2.609320759461297712e-08,8.960387110710144043e-01,-1.645479165017604828e-02,-1.927713304758071899e-02
8.349000000000000000e+03,1.069999980926513672e+01,4.099999904632568359e+00,4.538339481996445102e-09,2.659872322396950040e-08,8.960376381874084473e-01,-1.645434275269508362e-02,-1.927510090172290802e-02
8.350000000000000000e+03,1.080000019073486328e+01,4.099999904632568359e+00,4.581242940560059651e-09,2.710900126601245574e-08,8.960364460945129395e-01,-1.645412668585777283e-02,-1.927326805889606476e-02
8.351000000000000000e+03,1.089999961853027344e+01,4.099999904632568359e+00,4.624145955034464350e-09,2.762403461531448556e-08,8.960352540016174316e-01,-1.645410805940628052e-02,-1.927091367542743683e-02
8.352000000000000000e+03,1.100000000000000000e+01,4.099999904632568359e+00,4.667049413598078900e-09,2.814383215365978685e-08,8.960339426994323730e-01,-1.645425893366336823e-02,-1.926884427666664124e-02
8.353000000000000000e+03,1.110000038146972656e+01,4.099999904632568359e+00,4.709952872161693449e-09,2.866838677562100202e-08,8.960326313972473145e-01,-1.645454950630664825e-02,-1.926651969552040100e-02
8.354000000000000000e+03,1.119999980926513672e+01,4.099999904632568359e+00,4.752855886636098148e-09,2.919769670484129165e-08,8.960313200950622559e-01,-1.645495556294918060e-02,-1.926396787166595459e-02
8.355000000000000000e+03,1.130000019073486328e+01,4.099999904632568359e+00,4.795759345199712698e-09,2.973176904674801335e-08,8.960300087928771973e-01,-1.645545661449432373e-02,-1.926179043948650360e-02
8.356000000000000000e+03,1.139999961853027344e+01,4.099999904632568359e+00,4.838662359674117397e-09,3.027059491955697013e-08,8.960287570953369141e-01,-1.645603403449058533e-02,-1.925924047827720642e-02
8.357000000000000000e+03,1.150000000000000000e+01,4.099999904632568359e+00,4.881565374148522096e-09,3.081418853412287717e-08,8.960274457931518555e-01,-1.645667105913162231e-02,-1.925710588693618774e-02
8.358000000000000000e+03,1.160000038146972656e+01,4.099999904632568359e+00,4.924468832712136646e-09,3.136253923230469809e-08,8.960261940956115723e-01,-1.645735278725624084e-02,-1.925482414662837982e-02
8.359000000000000000e+03,1.169999980926513672e+01,4.099999904632568359e+00,4.967371403097331495e-09,3.191564346138875408e-08,8.960250020027160645e-01,-1.645806618034839630e-02,-1.925240643322467804e-02
8.360000000000000000e+03,1.180000019073486328e+01,4.099999904632568359e+00,5.010274417571736194e-09,3.247351187951608154e-08,8.960238099098205566e-01,-1.645880192518234253e-02,-1.925044134259223938e-02
8.361000000000000000e+03,1.189999961853027344e+01,4.099999904632568359e+00,5.053176987956931043e-09,3.303613382854564406e-08,8.960226774215698242e-01,-1.645954884588718414e-02,-1.924816519021987915e-02
8.362000000000000000e+03,1.200000000000000000e+01,4.099999904632568359e+00,5.096080002431335743e-09,3.360351996661847807e-08,8.960216045379638672e-01,-1.646029949188232422e-02,-1.924635469913482666e-02
8.363000000000000000e+03,1.210000038146972656e+01,4.099999904632568359e+00,5.138983016905740442e-09,3.417566674102090474e-08,8.960205912590026855e-01,-1.646104827523231506e-02,-1.924443803727626801e-02
8.364000000000000000e+03,1.219999980926513672e+01,4.099999904632568359e+00,5.181885587290935291e-09,3.475256349361188768e-08,8.960195779800415039e-01,-1.646178774535655975e-02,-1.924241706728935242e-02
8.365000000000000000e+03,1.230000019073486328e+01,4.099999904632568359e+00,5.224788601765339990e-09,3.533422798795982089e-08,8.960186243057250977e-01,-1.646251231431961060e-02,-1.924086920917034149e-02
8.366000000000000000e+03,1.239999961853027344e+01,4.099999904632568359e+00,5.267691172150534840e-09,3.592064601320998918e-08,8.960177302360534668e-01,-1.646322011947631836e-02,-1.923902891576290131e-02
8.367000000000000000e+03,1.250000000000000000e+01,4.099999904632568359e+00,5.310593742535729689e-09,3.651182822750342893e-08,8.960168957710266113e-01,-1.646390743553638458e-02,-1.923766173422336578e-02
8.368000000000000000e+03,1.260000038146972656e+01,4.099999904632568359e+00,5.353496757010134388e-09,3.710777107812646136e-08,8.960161209106445312e-01,-1.646457239985466003e-02,-1.923619396984577179e-02
8.369000000000000000e+03,1.269999980926513672e+01,4.099999904632568359e+00,5.396398883306119387e-09,3.770846390693805006e-08,8.960154056549072266e-01,-1.646521128714084625e-02,-1.923462189733982086e-02
8.370000000000000000e+03,1.280000019073486328e+01,4.099999904632568359e+00,5.439301897780524087e-09,3.831392447750658903e-08,8.960146903991699219e-01,-1.646582409739494324e-02,-1.923351921141147614e-02
8.371000000000000000e+03,1.289999961853027344e+01,4.099999904632568359e+00,5.482204024076509086e-09,3.892413502626368427e-08,8.960140347480773926e-01,-1.646640896797180176e-02,-1.923211663961410522e-02
8.372000000000000000e+03,1.300000000000000000e+01,4.099999904632568359e+00,5.525106594461703935e-09,3.953911331677772978e-08,8.960134387016296387e-01,-1.646696589887142181e-02,-1.923117786645889282e-02
8.373000000000000000e+03,1.310000038146972656e+01,4.099999904632568359e+00,5.568009608936108634e-09,4.015885224362136796e-08,8.960129022598266602e-01,-1.646749302744865417e-02,-1.923012733459472656e-02
8.374000000000000000e+03,1.319999980926513672e+01,4.099999904632568359e+00,5.610911735232093633e-09,4.078334114865356241e-08,8.960123658180236816e-01,-1.646799221634864807e-02,-1.922895759344100952e-02
8.375000000000000000e+03,1.330000019073486328e+01,4.099999904632568359e+00,5.653814305617288483e-09,4.141259779544270714e-08,8.960118889808654785e-01,-1.646846160292625427e-02,-1.922824420034885406e-02
8.376000000000000000e+03,1.339999961853027344e+01,4.099999904632568359e+00,5.696716431913273482e-09,4.204660442042040813e-08,8.960114717483520508e-01,-1.646890491247177124e-02,-1.922721229493618011e-02
8.377000000000000000e+03,1.350000000000000000e+01,4.099999904632568359e+00,5.739619446387678181e-09,4.268537878715505940e-08,8.960110545158386230e-01,-1.646931841969490051e-02,-1.922663114964962006e-02
8.378000000000000000e+03,1.360000038146972656e+01,4.099999904632568359e+00,5.782522016772873030e-09,4.332891379021930334e-08,8.960106968879699707e-01,-1.646970398724079132e-02,-1.922591589391231537e-02
8.379000000000000000e+03,1.369999980926513672e+01,4.099999904632568359e+00,5.825424143068858029e-09,4.397719877147210354e-08,8.960103392601013184e-01,-1.647006161510944366e-02,-1.922506652772426605e-02
8.380000000000000000e+03,1.380000019073486328e+01,4.099999904632568359e+00,5.868326713454052879e-09,4.463024794176817522e-08,8.960100412368774414e-01,-1.647039316594600677e-02,-1.922465488314628601e-02
8.381000000000000000e+03,1.389999961853027344e+01,4.099999904632568359e+00,5.911228839750037878e-09,4.528805419568016077e-08,8.960098028182983398e-01,-1.647069677710533142e-02,-1.922390609979629517e-02
8.382000000000000000e+03,1.400000000000000000e+01,4.099999904632568359e+00,5.954131410135232727e-09,4.595062108592173900e-08,8.960095047950744629e-01,-1.647097244858741760e-02,-1.922358758747577667e-02
8.383000000000000000e+03,1.410000038146972656e+01,4.099999904632568359e+00,5.997033980520427576e-09,4.661795216520658869e-08,8.960093259811401367e-01,-1.647122390568256378e-02,-1.922311820089817047e-02
8.384000000000000000e+03,1.419999980926513672e+01,4.099999904632568359e+00,6.039936106816412575e-09,4.729003322267999465e-08,8.960090875625610352e-01,-1.647144556045532227e-02,-1.922249235212802887e-02
8.385000000000000000e+03,1.430000019073486328e+01,4.099999904632568359e+00,6.082838677201607425e-09,4.796687846919667209e-08,8.960089683532714844e-01,-1.647164113819599152e-02,-1.922228559851646423e-02
8.386000000000000000e+03,1.439999961853027344e+01,4.099999904632568359e+00,6.125740803497592424e-09,4.864847724661558459e-08,8.960087895393371582e-01,-1.647180691361427307e-02,-1.922172307968139648e-02
8.387000000000000000e+03,1.450000000000000000e+01,4.099999904632568359e+00,6.168643373882787273e-09,4.933484376579144737e-08,8.960086703300476074e-01,-1.647194288671016693e-02,-1.922156848013401031e-02
8.388000000000000000e+03,1.460000038146972656e+01,4.099999904632568359e+00,6.211545944267982122e-09,5.002596736858322402e-08,8.960085511207580566e-01,-1.647204533219337463e-02,-1.922124065458774567e-02
8.389000000000000000e+03,1.469999980926513672e+01,4.099999904632568359e+00,6.254448070563967121e-09,5.072184450227723573e-08,8.960084319114685059e-01,-1.647211611270904541e-02,-1.922073774039745331e-02
8.390000000000000000e+03,1.480000019073486328e+01,4.099999904632568359e+00,6.297350640949161971e-09,5.142248582501451892e-08,8.960083723068237305e-01,-1.647214777767658234e-02,-1.922062784433364868e-02
8.391000000000000000e+03,1.489999961853027344e+01,4.099999904632568359e+00,6.340252767245146970e-09,5.212788067865403718e-08,8.960083127021789551e-01,-1.647214032709598541e-02,-1.922013796865940094e-02
8.392000000000000000e+03,1.500000000000000000e+01,4.099999904632568359e+00,6.383155337630341819e-09,5.283803972133682691e-08,8.960083127021789551e-01,-1.647208631038665771e-02,-1.922002993524074554e-02
8.393000000000000000e+03,1.510000038146972656e+01,4.099999904632568359e+00,6.426057908015536668e-09,5.355295940034920932e-08,8.960082530975341797e-01,-1.647198200225830078e-02,-1.921972073614597321e-02
8.394000000000000000e+03,1.519999980926513672e+01,4.099999904632568359e+00,6.468960034311521667e-09,5.427263261026382679e-08,8.960082530975341797e-01,-1.647181995213031769e-02,-1.921920105814933777e-02
8.395000000000000000e+03,1.530000019073486328e+01,4.099999904632568359e+00,6.511862604696716517e-09,5.499707000922171574e-08,8.960082530975341797e-01,-1.647159084677696228e-02,-1.921904273331165314e-02
8.396000000000000000e+03,1.539999961853027344e+01,4.099999904632568359e+00,6.554764730992701516e-09,5.572626093908183975e-08,8.960082530975341797e-01,-1.647128909826278687e-02,-1.921846531331539154e-02
8.397000000000000000e+03,1.550000000000000000e+01,4.099999904632568359e+00,6.597667301377896365e-09,5.646021605798523524e-08,8.960082530975341797e-01,-1.647089980542659760e-02,-1.921822503209114075e-02
8.398000000000000000e+03,1.560000038146972656e+01,4.099999904632568359e+00,6.640569871763091214e-09,5.719893181321822340e-08,8.960082530975341797e-01,-1.647041365504264832e-02,-1.921773701906204224e-02
8.399000000000000000e+03,1.569999980926513672e+01,4.099999904632568359e+00,6.683471998059076213e-09,5.794240109935344663e-08,8.960082530975341797e-01,-1.646981388330459595e-02,-1.921698637306690216e-02
8.400000000000000000e+03,1.580000019073486328e+01,4.099999904632568359e+00,6.726374568444271063e-09,5.869063457453194133e-08,8.960082530975341797e-01,-1.646908186376094818e-02,-1.921653188765048981e-02
8.401000000000000000e+03,1.589999961853027344e+01,4.099999904632568359e+00,6.769276250651046212e-09,5.944362158061267110e-08,8.960082530975341797e-01,-1.646820083260536194e-02,-1.921558938920497894e-02
8.402000000000000000e+03,1.600000000000000000e+01,4.099999904632568359e+00,6.812178821036241061e-09,6.020137277573667234e-08,8.960081934928894043e-01,-1.646714657545089722e-02,-1.921490579843521118e-02
8.403000000000000000e+03,1.610000038146972656e+01,4.099999904632568359e+00,6.855081391421435910e-09,6.096388460719026625e-08,8.960081338882446289e-01,-1.646589301526546478e-02,-1.921388506889343262e-02
8.404000000000000000e+03,1.620000076293945312e+01,4.099999904632568359e+00,6.897983961806630759e-09,6.173115707497345284e-08,8.960080146789550781e-01,-1.646441034972667694e-02,-1.921269111335277557e-02
8.405000000000000000e+03,1.629999923706054688e+01,4.099999904632568359e+00,6.940885199924196058e-09,6.250316886280415929e-08,8.960078954696655273e-01,-1.646266505122184753e-02,-1.921091414988040924e-02
8.406000000000000000e+03,1.639999961853027344e+01,4.099999904632568359e+00,6.983787770309390908e-09,6.327995549781917362e-08,8.960076570510864258e-01,-1.646061800420284271e-02,-1.920967176556587219e-02
8.407000000000000000e+03,1.650000000000000000e+01,4.099999904632568359e+00,7.026689896605375907e-09,6.406150276916378061e-08,8.960073590278625488e-01,-1.645822823047637939e-02,-1.920777931809425354e-02
8.408000000000000000e+03,1.660000038146972656e+01,4.099999904632568359e+00,7.069592022901360906e-09,6.484781067683798028e-08,8.960068821907043457e-01,-1.645544543862342834e-02,-1.920557767152786255e-02
8.409000000000000000e+03,1.670000076293945312e+01,4.099999904632568359e+00,7.112494593286555755e-09,6.563887922084177262e-08,8.960063457489013672e-01,-1.645221561193466187e-02,-1.920302771031856537e-02
8.410000000000000000e+03,1.679999923706054688e+01,4.099999904632568359e+00,7.155395387314911204e-09,6.643468708489308483e-08,8.960055708885192871e-01,-1.644847728312015533e-02,-1.919969171285629272e-02
8.411000000000000000e+03,1.689999961853027344e+01,4.099999904632568359e+00,7.198297513610896203e-09,6.723527690155606251e-08,8.960045576095581055e-01,-1.644416339695453644e-02,-1.919667609035968781e-02
8.412000000000000000e+03,1.700000000000000000e+01,4.099999904632568359e+00,7.241199195817671352e-09,6.804062024912127526e-08,8.960033059120178223e-01,-1.643919944763183594e-02,-1.919277012348175049e-02
8.413000000000000000e+03,1.710000038146972656e+01,4.099999904632568359e+00,7.284100878024446502e-09,6.885072423301608069e-08,8.960016965866088867e-01,-1.643350161612033844e-02,-1.918829791247844696e-02
8.414000000000000000e+03,1.720000076293945312e+01,4.099999904632568359e+00,7.327002560231221651e-09,6.966558174781312118e-08,8.959996104240417480e-01,-1.642698049545288086e-02,-1.918319799005985260e-02
8.415000000000000000e+03,1.729999923706054688e+01,4.099999904632568359e+00,7.369902910170367250e-09,7.048519279351239675e-08,8.959969878196716309e-01,-1.641953550279140472e-02,-1.917702704668045044e-02
8.416000000000000000e+03,1.739999961853027344e+01,4.099999904632568359e+00,7.412804148287932549e-09,7.130957158096862258e-08,8.959937095642089844e-01,-1.641105860471725464e-02,-1.917087286710739136e-02
8.417000000000000000e+03,1.750000000000000000e+01,4.099999904632568359e+00,7.455704498227078147e-09,7.213871100475444109e-08,8.959895968437194824e-01,-1.640143617987632751e-02,-1.916352659463882446e-02
8.418000000000000000e+03,1.760000038146972656e+01,4.099999904632568359e+00,7.498605292255433596e-09,7.297261106486985227e-08,8.959845304489135742e-01,-1.639054715633392334e-02,-1.915532350540161133e-02
8.419000000000000000e+03,1.770000076293945312e+01,4.099999904632568359e+00,7.541504309926949645e-09,7.381127176131485612e-08,8.959782123565673828e-01,-1.637826673686504364e-02,-1.914623193442821503e-02
8.420000000000000000e+03,1.779999923706054688e+01,4.099999904632568359e+00,7.584403327598465694e-09,7.465467177780737984e-08,8.959703445434570312e-01,-1.636447012424468994e-02,-1.913585327565670013e-02
8.421000000000000000e+03,1.789999961853027344e+01,4.099999904632568359e+00,7.627301457091562042e-09,7.550284664148421143e-08,8.959606885910034180e-01,-1.634903624653816223e-02,-1.912536472082138062e-02
8.422000000000000000e+03,1.800000000000000000e+01,4.099999904632568359e+00,7.670199586584658391e-09,7.635578214149063569e-08,8.959487080574035645e-01,-1.633186452090740204e-02,-1.911368779838085175e-02
8.423000000000000000e+03,1.810000038146972656e+01,4.099999904632568359e+00,7.713095939720915339e-09,7.721347827782665263e-08,8.959339857101440430e-01,-1.631288230419158936e-02,-1.910134963691234589e-02
8.424000000000000000e+03,1.820000076293945312e+01,4.099999904632568359e+00,7.755991404678752588e-09,7.807593505049226223e-08,8.959159255027770996e-01,-1.629208028316497803e-02,-1.908859424293041229e-02
8.425000000000000000e+03,1.829999923706054688e+01,4.099999904632568359e+00,7.798885093279750436e-09,7.894313114320539171e-08,8.958937525749206543e-01,-1.626953110098838806e-02,-1.907541416585445404e-02
8.426000000000000000e+03,1.839999961853027344e+01,4.099999904632568359e+00,7.841777005523908883e-09,7.981510208310282906e-08,8.958665728569030762e-01,-1.624546386301517487e-02,-1.906351931393146515e-02
8.427000000000000000e+03,1.850000000000000000e+01,4.099999904632568359e+00,7.884668029589647631e-09,8.069182655390250147e-08,8.958334326744079590e-01,-1.622032932937145233e-02,-1.905255578458309174e-02
8.428000000000000000e+03,1.860000038146972656e+01,4.099999904632568359e+00,7.927556389120127278e-09,8.157331166103176656e-08,8.957931995391845703e-01,-1.619493030011653900e-02,-1.904401183128356934e-02
8.429000000000000000e+03,1.870000076293945312e+01,4.099999904632568359e+00,7.970442084115347825e-09,8.245955740449062432e-08,8.957445621490478516e-01,-1.617059111595153809e-02,-1.903937757015228271e-02
8.430000000000000000e+03,1.879999923706054688e+01,4.099999904632568359e+00,8.013324226396889571e-09,8.335053536256964435e-08,8.956862092018127441e-01,-1.614939793944358826e-02,-1.904022134840488434e-02
8.431000000000000000e+03,1.889999961853027344e+01,4.099999904632568359e+00,8.056202815964752517e-09,8.424629527326032985e-08,8.956170678138732910e-01,-1.613452285528182983e-02,-1.905014179646968842e-02
8.432000000000000000e+03,1.900000000000000000e+01,4.099999904632568359e+00,8.099077852818936663e-09,8.514680160942589282e-08,8.955363035202026367e-01,-1.613063365221023560e-02,-1.907088421285152435e-02
8.433000000000000000e+03,1.910000038146972656e+01,4.099999904632568359e+00,8.141949336959442007e-09,8.605206147649369086e-08,8.954440355300903320e-01,-1.614432595670223236e-02,-1.910596154630184174e-02
8.434000000000000000e+03,1.920000076293945312e+01,4.099999904632568359e+00,8.184815492029429151e-09,8.696208197989108157e-08,8.953419923782348633e-01,-1.618446782231330872e-02,-1.915817148983478546e-02
8.435000000000000000e+03,1.929999923706054688e+01,4.099999904632568359e+00,8.227678094385737495e-09,8.787682759248127695e-08,8.952342867851257324e-01,-1.626211963593959808e-02,-1.922853104770183563e-02
8.436000000000000000e+03,1.939999961853027344e+01,4.099999904632568359e+00,8.270537144028367038e-09,8.879634094682842260e-08,8.951282501220703125e-01,-1.638957671821117401e-02,-1.931648515164852142e-02
8.437000000000000000e+03,1.950000000000000000e+01,4.099999904632568359e+00,8.313394417314157181e-09,8.972060783207780332e-08,8.950346112251281738e-01,-1.657790690660476685e-02,-1.941386051476001740e-02
8.438000000000000000e+03,1.960000038146972656e+01,4.099999904632568359e+00,8.356252578778367024e-09,9.064962114280206151e-08,8.949658274650573730e-01,-1.683275215327739716e-02,-1.950677298009395599e-02
8.439000000000000000e+03,1.970000076293945312e+01,4.099999904632568359e+00,8.399114292956255667e-09,9.158338798442855477e-08,8.949328064918518066e-01,-1.714910194277763367e-02,-1.957350410521030426e-02
8.440000000000000000e+03,1.979999923706054688e+01,4.099999904632568359e+00,8.441979559847823111e-09,9.252190125152992550e-08,8.949389457702636719e-01,-1.750724203884601593e-02,-1.958775706589221954e-02
8.441000000000000000e+03,1.989999961853027344e+01,4.099999904632568359e+00,8.484852820345167856e-09,9.346520357667031931e-08,8.949750065803527832e-01,-1.787301525473594666e-02,-1.952784880995750427e-02
8.442000000000000000e+03,2.000000000000000000e+01,4.099999904632568359e+00,8.527733186269870203e-09,9.441328074899502099e-08,8.950185179710388184e-01,-1.820427365601062775e-02,-1.938204839825630188e-02
8.443000000000000000e+03,0.000000000000000000e+00,4.199999809265136719e+00,2.440125857479662360e-38,-3.842457078772686821e-39,8.206775188446044922e-01,2.462032586336135864e-01,-2.986310124397277832e-01
8.444000000000000000e+03,1.000000014901161194e-01,4.199999809265136719e+00,3.556269514981558189e-11,-3.697336187213906555e-11,8.198555707931518555e-01,2.434633970260620117e-01,-3.266547918319702148e-01
8.445000000000000000e+03,2.000000029802322388e-01,4.199999809265136719e+00,7.120026790374822667e-11,-6.795031898265690984e-11,8.188283443450927734e-01,2.347975075244903564e-01,-3.069321215152740479e-01
8.446000000000000000e+03,3.000000119209289551e-01,4.199999809265136719e+00,1.070446717377215862e-10,-9.298510572630647175e-11,8.192036151885986328e-01,2.215704470872879028e-01,-2.881165742874145508e-01
8.447000000000000000e+03,4.000000059604644775e-01,4.199999809265136719e+00,1.431802593154785086e-10,-1.120008252808446514e-10,8.203853368759155273e-01,2.051263898611068726e-01,-2.690782546997070312e-01
8.448000000000000000e+03,5.000000000000000000e-01,4.199999809265136719e+00,1.796331833281428203e-10,-1.248515180130027602e-10,8.215762972831726074e-01,1.868831217288970947e-01,-2.493327409029006958e-01
8.449000000000000000e+03,6.000000238418579102e-01,4.199999809265136719e+00,2.163803164423327985e-10,-1.313780750855642054e-10,8.221054673194885254e-01,1.680527329444885254e-01,-2.289330512285232544e-01
8.450000000000000000e+03,6.999999880790710449e-01,4.199999809265136719e+00,2.533679099858687778e-10,-1.314455488898857993e-10,8.215969800949096680e-01,1.495243310928344727e-01,-2.082470953464508057e-01
8.451000000000000000e+03,8.000000119209289551e-01,4.199999809265136719e+00,2.905304052891466426e-10,-1.249604864028697193e-10,8.199726343154907227e-01,1.318681538105010986e-01,-1.877459883689880371e-01
8.452000000000000000e+03,8.999999761581420898e-01,4.199999809265136719e+00,3.278039228948870232e-10,-1.118740516892202663e-10,8.173640966415405273e-01,1.153998225927352905e-01,-1.678650826215744019e-01
8.453000000000000000e+03,1.000000000000000000e+00,4.199999809265136719e+00,3.651339786081564398e-10,-9.217721030907455315e-11,8.140081763267517090e-01,1.002563387155532837e-01,-1.489418148994445801e-01
8.454000000000000000e+03,1.100000023841857910e+00,4.199999809265136719e+00,4.024782451761410584e-10,-6.589311041249601431e-11,8.101676702499389648e-01,8.646119385957717896e-02,-1.312042623758316040e-01
8.455000000000000000e+03,1.200000047683715820e+00,4.199999809265136719e+00,4.398064967769954592e-10,-3.306927995327946235e-11,8.060843348503112793e-01,7.397171854972839355e-02,-1.147849783301353455e-01
8.456000000000000000e+03,1.299999952316284180e+00,4.199999809265136719e+00,4.770991379743350080e-10,6.229076282560086497e-12,8.019590377807617188e-01,6.271055340766906738e-02,-9.974214434623718262e-02
8.457000000000000000e+03,1.399999976158142090e+00,4.199999809265136719e+00,5.143453440936696097e-10,5.192484983651546315e-11,7.979463934898376465e-01,5.258521810173988342e-02,-8.608018606901168823e-02
8.458000000000000000e+03,1.500000000000000000e+00,4.199999809265136719e+00,5.515409795542325355e-10,1.039329872165595248e-10,7.941583991050720215e-01,4.349964112043380737e-02,-7.376646250486373901e-02
8.459000000000000000e+03,1.600000023841857910e+00,4.199999809265136719e+00,5.886868215121410230e-10,1.621640044469074837e-10,7.906702160835266113e-01,3.536038845777511597e-02,-6.274430453777313232e-02
8.460000000000000000e+03,1.700000047683715820e+00,4.199999809265136719e+00,6.257870333037374166e-10,2.265263809864137556e-10,7.875278592109680176e-01,2.807976491749286652e-02,-5.294218659400939941e-02
8.461000000000000000e+03,1.799999952316284180e+00,4.199999809265136719e+00,6.628479987114133110e-10,2.969283430243052635e-10,7.847542762756347656e-01,2.157710865139961243e-02,-4.428029060363769531e-02
8.462000000000000000e+03,1.899999976158142090e+00,4.199999809265136719e+00,6.998776003186435446e-10,3.732796016731043665e-10,7.823554873466491699e-01,1.577894948422908783e-02,-3.667518869042396545e-02
8.463000000000000000e+03,2.000000000000000000e+00,4.199999809265136719e+00,7.368842758204152688e-10,4.554918109356265177e-10,7.803248763084411621e-01,1.061876863241195679e-02,-3.004265017807483673e-02
8.464000000000000000e+03,2.099999904632568359e+00,4.199999809265136719e+00,7.738764074005644034e-10,5.434795946612780426e-10,7.786472439765930176e-01,6.036397535353899002e-03,-2.429999411106109619e-02
8.465000000000000000e+03,2.200000047683715820e+00,4.199999809265136719e+00,8.108625992875317934e-10,6.371614347244758392e-10,7.773013114929199219e-01,1.977373380213975906e-03,-1.936739683151245117e-02
8.466000000000000000e+03,2.299999952316284180e+00,4.199999809265136719e+00,8.478504009978848899e-10,7.364588938685301400e-10,7.762624025344848633e-01,-1.607640995644032955e-03,-1.516842097043991089e-02
8.467000000000000000e+03,2.400000095367431641e+00,4.199999809265136719e+00,8.848472510258886814e-10,8.412984753292107598e-10,7.755035758018493652e-01,-4.763508681207895279e-03,-1.163117494434118271e-02
8.468000000000000000e+03,2.500000000000000000e+00,4.199999809265136719e+00,9.218594221316323001e-10,9.516100130113613886e-10,7.749972939491271973e-01,-7.531059905886650085e-03,-8.687795139849185944e-03
8.469000000000000000e+03,2.599999904632568359e+00,4.199999809265136719e+00,9.588927429859950280e-10,1.067328003756529142e-09,7.747162580490112305e-01,-9.947592392563819885e-03,-6.275332998484373093e-03
8.470000000000000000e+03,2.700000047683715820e+00,4.199999809265136719e+00,9.959522095925876783e-10,1.188391496320662100e-09,7.746337056159973145e-01,-1.204722095280885696e-02,-4.335233010351657867e-03
8.471000000000000000e+03,2.799999952316284180e+00,4.199999809265136719e+00,1.033041874265450133e-09,1.314742759106479753e-09,7.747243046760559082e-01,-1.386118307709693909e-02,-2.813266590237617493e-03
8.472000000000000000e+03,2.900000095367431641e+00,4.199999809265136719e+00,1.070165178695958730e-09,1.446329278564917331e-09,7.749642133712768555e-01,-1.541814673691987991e-02,-1.659904490225017071e-03
8.473000000000000000e+03,3.000000000000000000e+00,4.199999809265136719e+00,1.107324898441675032e-09,1.583101094659866703e-09,7.753311991691589355e-01,-1.674439758062362671e-02,-8.293776190839707851e-04
8.474000000000000000e+03,3.099999904632568359e+00,4.199999809265136719e+00,1.144523142926345827e-09,1.725013021314225625e-09,7.758048176765441895e-01,-1.786406710743904114e-02,-2.802567905746400356e-04
8.475000000000000000e+03,3.200000047683715820e+00,4.199999809265136719e+00,1.181761577484508052e-09,1.872023869253780504e-09,7.763665318489074707e-01,-1.879928819835186005e-02,2.527276956243440509e-05
8.476000000000000000e+03,3.299999952316284180e+00,4.199999809265136719e+00,1.219041090294581409e-09,2.024094003516552220e-09,7.769994735717773438e-01,-1.957033202052116394e-02,1.216226883116178215e-04
8.477000000000000000e+03,3.400000095367431641e+00,4.199999809265136719e+00,1.256362458512683133e-09,2.181189673322592171e-09,7.776885032653808594e-01,-2.019576542079448700e-02,3.951348480768501759e-05
8.478000000000000000e+03,3.500000000000000000e+00,4.199999809265136719e+00,1.293725682138813227e-09,2.343277349936556675e-09,7.784202098846435547e-01,-2.069254592061042786e-02,-1.930397847900167108e-04
8.479000000000000000e+03,3.599999904632568359e+00,4.199999809265136719e+00,1.331130650150669226e-09,2.510328833693620254e-09,7.791825532913208008e-01,-2.107614465057849884e-02,-5.512745701707899570e-04
8.480000000000000000e+03,3.700000047683715820e+00,4.199999809265136719e+00,1.368577029481343743e-09,2.682317701285796829e-09,7.799651622772216797e-01,-2.136064507067203522e-02,-1.012960565276443958e-03
8.481000000000000000e+03,3.799999952316284180e+00,4.199999809265136719e+00,1.406064042974719541e-09,2.859219305761939722e-09,7.807587981224060059e-01,-2.155882865190505981e-02,-1.558193005621433258e-03
8.482000000000000000e+03,3.900000095367431641e+00,4.199999809265136719e+00,1.443590691430074457e-09,3.041012774929185980e-09,7.815555334091186523e-01,-2.168227918446063995e-02,-2.169700339436531067e-03
8.483000000000000000e+03,4.000000000000000000e+00,4.199999809265136719e+00,1.481155975646686329e-09,3.227677902728487425e-09,7.823486924171447754e-01,-2.174145169556140900e-02,-2.831898396834731102e-03
8.484000000000000000e+03,4.099999904632568359e+00,4.199999809265136719e+00,1.518758563356925606e-09,3.419197813769869754e-09,7.831323742866516113e-01,-2.174576185643672943e-02,-3.531462745741009712e-03
8.485000000000000000e+03,4.199999809265136719e+00,4.199999809265136719e+00,1.556397233315465201e-09,3.615556742886383290e-09,7.839017510414123535e-01,-2.170366048812866211e-02,-4.256611224263906479e-03
8.486000000000000000e+03,4.300000190734863281e+00,4.199999809265136719e+00,1.594070764276978025e-09,3.816742033535547307e-09,7.846528887748718262e-01,-2.162270434200763702e-02,-4.997277632355690002e-03
8.487000000000000000e+03,4.400000095367431641e+00,4.199999809265136719e+00,1.631777157840019754e-09,4.022739030773436752e-09,7.853823900222778320e-01,-2.150962688028812408e-02,-5.744450725615024567e-03
8.488000000000000000e+03,4.500000000000000000e+00,4.199999809265136719e+00,1.669515192759263300e-09,4.233538408726644775e-09,7.860876917839050293e-01,-2.137041091918945312e-02,-6.490961648523807526e-03
8.489000000000000000e+03,4.599999904632568359e+00,4.199999809265136719e+00,1.707283203700171725e-09,4.449130397432554673e-09,7.867667675018310547e-01,-2.121033892035484314e-02,-7.230430841445922852e-03
8.490000000000000000e+03,4.699999809265136719e+00,4.199999809265136719e+00,1.745079747372813017e-09,4.669506559196179296e-09,7.874180674552917480e-01,-2.103405818343162537e-02,-7.957599125802516937e-03
8.491000000000000000e+03,4.800000190734863281e+00,4.199999809265136719e+00,1.782903380487255163e-09,4.894660676768580743e-09,7.880405187606811523e-01,-2.084564231336116791e-02,-8.668218739330768585e-03
8.492000000000000000e+03,4.900000095367431641e+00,4.199999809265136719e+00,1.820752326686658762e-09,5.124584756543981712e-09,7.886335253715515137e-01,-2.064863778650760651e-02,-9.358486160635948181e-03
8.493000000000000000e+03,5.000000000000000000e+00,4.199999809265136719e+00,1.858625253703394264e-09,5.359273469451864003e-09,7.891966700553894043e-01,-2.044611237943172455e-02,-1.002587564289569855e-02
8.494000000000000000e+03,5.099999904632568359e+00,4.199999809265136719e+00,1.896520496202924733e-09,5.598722818689338965e-09,7.897298932075500488e-01,-2.024070546030998230e-02,-1.066812966018915176e-02
8.495000000000000000e+03,5.199999809265136719e+00,4.199999809265136719e+00,1.934436832939923079e-09,5.842928807453517948e-09,7.902334928512573242e-01,-2.003467269241809845e-02,-1.128363702446222305e-02
8.496000000000000000e+03,5.300000190734863281e+00,4.199999809265136719e+00,1.972372931646759753e-09,6.091889659387561551e-09,7.907078266143798828e-01,-1.982991583645343781e-02,-1.187135372310876846e-02
8.497000000000000000e+03,5.400000095367431641e+00,4.199999809265136719e+00,2.010327460055805204e-09,6.345599157242531874e-09,7.911534309387207031e-01,-1.962803117930889130e-02,-1.243029441684484482e-02
8.498000000000000000e+03,5.500000000000000000e+00,4.199999809265136719e+00,2.048298863854824958e-09,6.604057301018428916e-09,7.915711402893066406e-01,-1.943034119904041290e-02,-1.296037621796131134e-02
8.499000000000000000e+03,5.599999904632568359e+00,4.199999809265136719e+00,2.086286032820794389e-09,6.867261870269203428e-09,7.919617295265197754e-01,-1.923792064189910889e-02,-1.346146408468484879e-02
8.500000000000000000e+03,5.699999809265136719e+00,4.199999809265136719e+00,2.124287856730688873e-09,7.135211532727225858e-09,7.923261523246765137e-01,-1.905162818729877472e-02,-1.393377128988504410e-02
8.501000000000000000e+03,5.800000190734863281e+00,4.199999809265136719e+00,2.162303669450693633e-09,7.407906732481706058e-09,7.926654219627380371e-01,-1.887213438749313354e-02,-1.437781192362308502e-02
8.502000000000000000e+03,5.900000095367431641e+00,4.199999809265136719e+00,2.200331694623969270e-09,7.685343028640545526e-09,7.929806709289550781e-01,-1.869994401931762695e-02,-1.479392033070325851e-02
8.503000000000000000e+03,6.000000000000000000e+00,4.199999809265136719e+00,2.238371488161305933e-09,7.967522641649793513e-09,7.932729125022888184e-01,-1.853541471064090729e-02,-1.518311910331249237e-02
8.504000000000000000e+03,6.099999904632568359e+00,4.199999809265136719e+00,2.276421717795074073e-09,8.254444239241820469e-09,7.935432195663452148e-01,-1.837878674268722534e-02,-1.554619148373603821e-02
8.505000000000000000e+03,6.199999809265136719e+00,4.199999809265136719e+00,2.314481717391458915e-09,8.546108709595046093e-09,7.937928438186645508e-01,-1.823018305003643036e-02,-1.588409394025802612e-02
8.506000000000000000e+03,6.300000190734863281e+00,4.199999809265136719e+00,2.352551042861250608e-09,8.842516052709470387e-09,7.940228581428527832e-01,-1.808964461088180542e-02,-1.619794219732284546e-02
8.507000000000000000e+03,6.400000095367431641e+00,4.199999809265136719e+00,2.390628139892214676e-09,9.143664492228253948e-09,7.942343950271606445e-01,-1.795712858438491821e-02,-1.648854091763496399e-02
8.508000000000000000e+03,6.500000000000000000e+00,4.199999809265136719e+00,2.428712786439746196e-09,9.449555804508236179e-09,7.944285273551940918e-01,-1.783253438770771027e-02,-1.675726473331451416e-02
8.509000000000000000e+03,6.599999904632568359e+00,4.199999809265136719e+00,2.466804316370030392e-09,9.760189989549417078e-09,7.946062684059143066e-01,-1.771569997072219849e-02,-1.700514927506446838e-02
8.510000000000000000e+03,6.699999809265136719e+00,4.199999809265136719e+00,2.504901841504647564e-09,1.007556793553021635e-08,7.947687506675720215e-01,-1.760642416775226593e-02,-1.723332330584526062e-02
8.511000000000000000e+03,6.800000190734863281e+00,4.199999809265136719e+00,2.543005139798992786e-09,1.039569141880747338e-08,7.949169278144836426e-01,-1.750447228550910950e-02,-1.744299381971359253e-02
8.512000000000000000e+03,6.900000095367431641e+00,4.199999809265136719e+00,2.581113545119251285e-09,1.072055866302434879e-08,7.950518131256103516e-01,-1.740958169102668762e-02,-1.763499714434146881e-02
8.513000000000000000e+03,7.000000000000000000e+00,4.199999809265136719e+00,2.619226391331608284e-09,1.105017055635926226e-08,7.951743006706237793e-01,-1.732146739959716797e-02,-1.781068556010723114e-02
8.514000000000000000e+03,7.099999904632568359e+00,4.199999809265136719e+00,2.657343456391458858e-09,1.138452798699063351e-08,7.952853441238403320e-01,-1.723982952535152435e-02,-1.797102764248847961e-02
8.515000000000000000e+03,7.199999809265136719e+00,4.199999809265136719e+00,2.695464074164988233e-09,1.172363273127530192e-08,7.953857183456420898e-01,-1.716436073184013367e-02,-1.811704784631729126e-02
8.516000000000000000e+03,7.300000190734863281e+00,4.199999809265136719e+00,2.733588244652196408e-09,1.206748567739168720e-08,7.954761981964111328e-01,-1.709474623203277588e-02,-1.824981905519962311e-02
8.517000000000000000e+03,7.400000095367431641e+00,4.199999809265136719e+00,2.771715079674663684e-09,1.241608504898294996e-08,7.955576777458190918e-01,-1.703067123889923096e-02,-1.837001554667949677e-02
8.518000000000000000e+03,7.500000000000000000e+00,4.199999809265136719e+00,2.809844801276994986e-09,1.276943262240592958e-08,7.956308126449584961e-01,-1.697182282805442810e-02,-1.847881078720092773e-02
8.519000000000000000e+03,7.599999904632568359e+00,4.199999809265136719e+00,2.847976743325375537e-09,1.312752928583904577e-08,7.956962585449218750e-01,-1.691788807511329651e-02,-1.857698336243629456e-02
8.520000000000000000e+03,7.699999809265136719e+00,4.199999809265136719e+00,2.886110683775200414e-09,1.349037592746071823e-08,7.957546710968017578e-01,-1.686856523156166077e-02,-1.866535097360610962e-02
8.521000000000000000e+03,7.800000190734863281e+00,4.199999809265136719e+00,2.924246844671074541e-09,1.385797432362778636e-08,7.958066463470458984e-01,-1.682355441153049469e-02,-1.874477416276931763e-02
8.522000000000000000e+03,7.900000095367431641e+00,4.199999809265136719e+00,2.962384337834578218e-09,1.423032180980499106e-08,7.958527207374572754e-01,-1.678257063031196594e-02,-1.881571672856807709e-02
8.523000000000000000e+03,8.000000000000000000e+00,4.199999809265136719e+00,3.000523163265711446e-09,1.460742105052759143e-08,7.958934903144836426e-01,-1.674533635377883911e-02,-1.887913234531879425e-02
8.524000000000000000e+03,8.100000381469726562e+00,4.199999809265136719e+00,3.038663320964474224e-09,1.498927382215242687e-08,7.959294319152832031e-01,-1.671158522367477417e-02,-1.893567293882369995e-02
8.525000000000000000e+03,8.199999809265136719e+00,4.199999809265136719e+00,3.076804366841656702e-09,1.537587479560897918e-08,7.959609031677246094e-01,-1.668106019496917725e-02,-1.898557692766189575e-02
8.526000000000000000e+03,8.300000190734863281e+00,4.199999809265136719e+00,3.114946522941863805e-09,1.576723285268144537e-08,7.959883809089660645e-01,-1.665352284908294678e-02,-1.903004758059978485e-02
8.527000000000000000e+03,8.399999618530273438e+00,4.199999809265136719e+00,3.153089345175885683e-09,1.616334088794246782e-08,7.960122823715209961e-01,-1.662874035537242889e-02,-1.906888000667095184e-02
8.528000000000000000e+03,8.500000000000000000e+00,4.199999809265136719e+00,3.191233055588327261e-09,1.656420778317624354e-08,7.960329651832580566e-01,-1.660649292171001434e-02,-1.910329423844814301e-02
8.529000000000000000e+03,8.600000381469726562e+00,4.199999809265136719e+00,3.229377210089978689e-09,1.696982820931225433e-08,7.960507273674011230e-01,-1.658657938241958618e-02,-1.913319528102874756e-02
8.530000000000000000e+03,8.699999809265136719e+00,4.199999809265136719e+00,3.267521586636235043e-09,1.738019861363682139e-08,7.960658073425292969e-01,-1.656880415976047516e-02,-1.915900409221649170e-02
8.531000000000000000e+03,8.800000190734863281e+00,4.199999809265136719e+00,3.305666851360911096e-09,1.779532787793414172e-08,7.960786223411560059e-01,-1.655298285186290741e-02,-1.918165385723114014e-02
8.532000000000000000e+03,8.899999618530273438e+00,4.199999809265136719e+00,3.343811894040982224e-09,1.821520889677685773e-08,7.960892915725708008e-01,-1.653894968330860138e-02,-1.920077204704284668e-02
8.533000000000000000e+03,9.000000000000000000e+00,4.199999809265136719e+00,3.381957602854868128e-09,1.863985055194916640e-08,7.960981726646423340e-01,-1.652654446661472321e-02,-1.921741850674152374e-02
8.534000000000000000e+03,9.100000381469726562e+00,4.199999809265136719e+00,3.420103311668754031e-09,1.906924751438054955e-08,7.961053848266601562e-01,-1.651561819016933441e-02,-1.923134736716747284e-02
8.535000000000000000e+03,9.199999809265136719e+00,4.199999809265136719e+00,3.458249020482639935e-09,1.950339623135732836e-08,7.961111664772033691e-01,-1.650603301823139191e-02,-1.924283429980278015e-02
8.536000000000000000e+03,9.300000190734863281e+00,4.199999809265136719e+00,3.496395173385735688e-09,1.994230736102053925e-08,7.961156964302062988e-01,-1.649766415357589722e-02,-1.925267837941646576e-02
8.537000000000000000e+03,9.399999618530273438e+00,4.199999809265136719e+00,3.534540882199621592e-09,2.038596846887230640e-08,7.961190938949584961e-01,-1.649039238691329956e-02,-1.926038041710853577e-02
8.538000000000000000e+03,9.500000000000000000e+00,4.199999809265136719e+00,3.572687035102717346e-09,2.083439376576734503e-08,7.961215376853942871e-01,-1.648410595953464508e-02,-1.926687918603420258e-02
8.539000000000000000e+03,9.600000381469726562e+00,4.199999809265136719e+00,3.610833188005813099e-09,2.128757436992145813e-08,7.961230874061584473e-01,-1.647870987653732300e-02,-1.927181705832481384e-02
8.540000000000000000e+03,9.699999809265136719e+00,4.199999809265136719e+00,3.648979118864303928e-09,2.174550850497780630e-08,7.961239814758300781e-01,-1.647410728037357330e-02,-1.927536539733409882e-02
8.541000000000000000e+03,9.800000190734863281e+00,4.199999809265136719e+00,3.687125271767399681e-09,2.220820505272058654e-08,7.961242794990539551e-01,-1.647021621465682983e-02,-1.927823014557361603e-02
8.542000000000000000e+03,9.899999618530273438e+00,4.199999809265136719e+00,3.725270980581285585e-09,2.267565335500876245e-08,7.961239814758300781e-01,-1.646695844829082489e-02,-1.927982084453105927e-02
8.543000000000000000e+03,1.000000000000000000e+01,4.199999809265136719e+00,3.763416689395171488e-09,2.314786584634020983e-08,7.961232662200927734e-01,-1.646426320075988770e-02,-1.928099058568477631e-02
8.544000000000000000e+03,1.010000038146972656e+01,4.199999809265136719e+00,3.801562620253662317e-09,2.362483542128757108e-08,7.961221933364868164e-01,-1.646206527948379517e-02,-1.928131282329559326e-02
8.545000000000000000e+03,1.019999980926513672e+01,4.199999809265136719e+00,3.839708107022943295e-09,2.410655852713716740e-08,7.961208224296569824e-01,-1.646030507981777191e-02,-1.928087137639522552e-02
8.546000000000000000e+03,1.030000019073486328e+01,4.199999809265136719e+00,3.877854037881434124e-09,2.459304582203003520e-08,7.961192131042480469e-01,-1.645893231034278870e-02,-1.928033307194709778e-02
8.547000000000000000e+03,1.039999961853027344e+01,4.199999809265136719e+00,3.915999080561505252e-09,2.508428487146829866e-08,7.961174249649047852e-01,-1.645789667963981628e-02,-1.927901245653629303e-02
8.548000000000000000e+03,1.050000000000000000e+01,4.199999809265136719e+00,3.954144567330786231e-09,2.558028810994983360e-08,7.961154580116271973e-01,-1.645715348422527313e-02,-1.927774958312511444e-02
8.549000000000000000e+03,1.060000038146972656e+01,4.199999809265136719e+00,3.992290054100067209e-09,2.608105020840412180e-08,7.961134314537048340e-01,-1.645666733384132385e-02,-1.927603036165237427e-02
8.550000000000000000e+03,1.069999980926513672e+01,4.199999809265136719e+00,4.030435096780138338e-09,2.658656583776064508e-08,7.961112856864929199e-01,-1.645639725029468536e-02,-1.927391067147254944e-02
8.551000000000000000e+03,1.080000019073486328e+01,4.199999809265136719e+00,4.068580139460209466e-09,2.709684565616043983e-08,7.961091399192810059e-01,-1.645631715655326843e-02,-1.927201636135578156e-02
8.552000000000000000e+03,1.089999961853027344e+01,4.199999809265136719e+00,4.106724738051070744e-09,2.761187722910563025e-08,7.961069345474243164e-01,-1.645639538764953613e-02,-1.926961727440357208e-02
8.553000000000000000e+03,1.100000000000000000e+01,4.199999809265136719e+00,4.144869780731141873e-09,2.813167476745093154e-08,7.961047291755676270e-01,-1.645660586655139923e-02,-1.926752366125583649e-02
8.554000000000000000e+03,1.110000038146972656e+01,4.199999809265136719e+00,4.183014823411213001e-09,2.865623116576898610e-08,7.961025834083557129e-01,-1.645692996680736542e-02,-1.926518790423870087e-02
8.555000000000000000e+03,1.119999980926513672e+01,4.199999809265136719e+00,4.221159422002074280e-09,2.918553931863243633e-08,7.961004376411437988e-01,-1.645734347403049469e-02,-1.926263980567455292e-02
8.556000000000000000e+03,1.130000019073486328e+01,4.199999809265136719e+00,4.259304020592935558e-09,2.971961343689599744e-08,7.960983514785766602e-01,-1.645783148705959320e-02,-1.926047541201114655e-02
8.557000000000000000e+03,1.139999961853027344e+01,4.199999809265136719e+00,4.297448175094586986e-09,3.025844108606179361e-08,7.960963249206542969e-01,-1.645837724208831787e-02,-1.925794780254364014e-02
8.558000000000000000e+03,1.150000000000000000e+01,4.199999809265136719e+00,4.335592773685448265e-09,3.080203114791402186e-08,7.960943579673767090e-01,-1.645896770060062408e-02,-1.925584301352500916e-02
8.559000000000000000e+03,1.160000038146972656e+01,4.199999809265136719e+00,4.373737372276309543e-09,3.135038184609584277e-08,7.960924506187438965e-01,-1.645958982408046722e-02,-1.925359666347503662e-02
8.560000000000000000e+03,1.169999980926513672e+01,4.199999809265136719e+00,4.411881082688751121e-09,3.190348607517989876e-08,7.960906624794006348e-01,-1.646023616194725037e-02,-1.925121992826461792e-02
8.561000000000000000e+03,1.180000019073486328e+01,4.199999809265136719e+00,4.450025681279612400e-09,3.246135449330722622e-08,7.960889339447021484e-01,-1.646089553833007812e-02,-1.924929767847061157e-02
8.562000000000000000e+03,1.189999961853027344e+01,4.199999809265136719e+00,4.488169391692053978e-09,3.302397644233678875e-08,7.960872650146484375e-01,-1.646156050264835358e-02,-1.924706995487213135e-02
8.563000000000000000e+03,1.200000000000000000e+01,4.199999809265136719e+00,4.526313546193705406e-09,3.359136258040962275e-08,7.960857152938842773e-01,-1.646222546696662903e-02,-1.924530789256095886e-02
8.564000000000000000e+03,1.210000038146972656e+01,4.199999809265136719e+00,4.564457700695356834e-09,3.416350935481204942e-08,7.960842251777648926e-01,-1.646288484334945679e-02,-1.924344152212142944e-02
8.565000000000000000e+03,1.219999980926513672e+01,4.199999809265136719e+00,4.602601411107798413e-09,3.474040610740303237e-08,7.960827946662902832e-01,-1.646353304386138916e-02,-1.924147084355354309e-02
8.566000000000000000e+03,1.230000019073486328e+01,4.199999809265136719e+00,4.640745121520239991e-09,3.532207060175096558e-08,7.960814833641052246e-01,-1.646416634321212769e-02,-1.923997513949871063e-02
8.567000000000000000e+03,1.239999961853027344e+01,4.199999809265136719e+00,4.678888831932681569e-09,3.590848862700113386e-08,7.960802316665649414e-01,-1.646478474140167236e-02,-1.923818513751029968e-02
8.568000000000000000e+03,1.250000000000000000e+01,4.199999809265136719e+00,4.717032542345123147e-09,3.649967084129457362e-08,7.960790991783142090e-01,-1.646538078784942627e-02,-1.923686824738979340e-02
8.569000000000000000e+03,1.260000038146972656e+01,4.199999809265136719e+00,4.755176696846774576e-09,3.709561369191760605e-08,7.960780262947082520e-01,-1.646595634520053864e-02,-1.923544891178607941e-02
8.570000000000000000e+03,1.269999980926513672e+01,4.199999809265136719e+00,4.793319963170006304e-09,3.769630652072919474e-08,7.960770130157470703e-01,-1.646650955080986023e-02,-1.923392340540885925e-02
8.571000000000000000e+03,1.280000019073486328e+01,4.199999809265136719e+00,4.831463673582447882e-09,3.830176709129773371e-08,7.960760593414306641e-01,-1.646703854203224182e-02,-1.923286914825439453e-02
8.572000000000000000e+03,1.289999961853027344e+01,4.199999809265136719e+00,4.869607383994889460e-09,3.891198119276850775e-08,7.960751652717590332e-01,-1.646754145622253418e-02,-1.923151127994060516e-02
8.573000000000000000e+03,1.300000000000000000e+01,4.199999809265136719e+00,4.907751094407331038e-09,3.952695948328255326e-08,7.960743904113769531e-01,-1.646802015602588654e-02,-1.923061721026897430e-02
8.574000000000000000e+03,1.310000038146972656e+01,4.199999809265136719e+00,4.945894360730562767e-09,4.014669485741251265e-08,7.960736155509948730e-01,-1.646847277879714966e-02,-1.922960579395294189e-02
8.575000000000000000e+03,1.319999980926513672e+01,4.199999809265136719e+00,4.984038071143004345e-09,4.077118376244470710e-08,7.960729598999023438e-01,-1.646889932453632355e-02,-1.922847703099250793e-02
8.576000000000000000e+03,1.330000019073486328e+01,4.199999809265136719e+00,5.022181337466236073e-09,4.140044040923385182e-08,7.960723042488098145e-01,-1.646930351853370667e-02,-1.922780089080333710e-02
8.577000000000000000e+03,1.339999961853027344e+01,4.199999809265136719e+00,5.060324603789467801e-09,4.203444703421155282e-08,7.960717082023620605e-01,-1.646967977285385132e-02,-1.922680623829364777e-02
8.578000000000000000e+03,1.350000000000000000e+01,4.199999809265136719e+00,5.098468314201909379e-09,4.267322140094620408e-08,7.960711717605590820e-01,-1.647003367543220520e-02,-1.922625862061977386e-02
8.579000000000000000e+03,1.360000038146972656e+01,4.199999809265136719e+00,5.136612024614350958e-09,4.331675640401044802e-08,7.960706949234008789e-01,-1.647036150097846985e-02,-1.922557875514030457e-02
8.580000000000000000e+03,1.369999980926513672e+01,4.199999809265136719e+00,5.174754846848372836e-09,4.396504138526324823e-08,7.960702776908874512e-01,-1.647066697478294373e-02,-1.922475919127464294e-02
8.581000000000000000e+03,1.380000019073486328e+01,4.199999809265136719e+00,5.212898557260814414e-09,4.461809055555931991e-08,7.960698604583740234e-01,-1.647095009684562683e-02,-1.922437734901905060e-02
8.582000000000000000e+03,1.389999961853027344e+01,4.199999809265136719e+00,5.251041823584046142e-09,4.527589680947130546e-08,7.960695028305053711e-01,-1.647120714187622070e-02,-1.922365650534629822e-02
8.583000000000000000e+03,1.400000000000000000e+01,4.199999809265136719e+00,5.289185089907277870e-09,4.593846369971288368e-08,7.960692048072814941e-01,-1.647144369781017303e-02,-1.922336407005786896e-02
8.584000000000000000e+03,1.410000038146972656e+01,4.199999809265136719e+00,5.327328800319719448e-09,4.660579477899773337e-08,7.960689067840576172e-01,-1.647165603935718536e-02,-1.922291889786720276e-02
8.585000000000000000e+03,1.419999980926513672e+01,4.199999809265136719e+00,5.365472066642951177e-09,4.727787583647113934e-08,7.960686683654785156e-01,-1.647184602916240692e-02,-1.922231912612915039e-02
8.586000000000000000e+03,1.430000019073486328e+01,4.199999809265136719e+00,5.403615332966182905e-09,4.795472108298781677e-08,7.960684299468994141e-01,-1.647201180458068848e-02,-1.922213286161422729e-02
8.587000000000000000e+03,1.439999961853027344e+01,4.199999809265136719e+00,5.441758599289414633e-09,4.863631986040672928e-08,7.960682511329650879e-01,-1.647215150296688080e-02,-1.922159083187580109e-02
8.588000000000000000e+03,1.450000000000000000e+01,4.199999809265136719e+00,5.479901865612646361e-09,4.932268637958259205e-08,7.960680723190307617e-01,-1.647226884961128235e-02,-1.922145672142505646e-02
8.589000000000000000e+03,1.460000038146972656e+01,4.199999809265136719e+00,5.518045576025087939e-09,5.001380998237436870e-08,7.960679531097412109e-01,-1.647235639393329620e-02,-1.922114938497543335e-02
8.590000000000000000e+03,1.469999980926513672e+01,4.199999809265136719e+00,5.556188398259109817e-09,5.070968711606838042e-08,7.960678339004516602e-01,-1.647241599857807159e-02,-1.922066323459148407e-02
8.591000000000000000e+03,1.480000019073486328e+01,4.199999809265136719e+00,5.594332108671551396e-09,5.141032843880566361e-08,7.960677742958068848e-01,-1.647244393825531006e-02,-1.922057010233402252e-02
8.592000000000000000e+03,1.489999961853027344e+01,4.199999809265136719e+00,5.632474930905573274e-09,5.211572329244518187e-08,7.960676550865173340e-01,-1.647243835031986237e-02,-1.922009512782096863e-02
8.593000000000000000e+03,1.500000000000000000e+01,4.199999809265136719e+00,5.670618641318014852e-09,5.282588588784165040e-08,7.960676550865173340e-01,-1.647239178419113159e-02,-1.922000013291835785e-02
8.594000000000000000e+03,1.510000038146972656e+01,4.199999809265136719e+00,5.708761907641246580e-09,5.354080556685403280e-08,7.960675954818725586e-01,-1.647230423986911774e-02,-1.921970210969448090e-02
8.595000000000000000e+03,1.519999980926513672e+01,4.199999809265136719e+00,5.746905173964478308e-09,5.426047522405497148e-08,7.960675954818725586e-01,-1.647216640412807465e-02,-1.921919360756874084e-02
8.596000000000000000e+03,1.530000019073486328e+01,4.199999809265136719e+00,5.785048440287710037e-09,5.498491617572653922e-08,7.960676550865173340e-01,-1.647197268903255463e-02,-1.921904273331165314e-02
8.597000000000000000e+03,1.539999961853027344e+01,4.199999809265136719e+00,5.823191706610941765e-09,5.571410355287298444e-08,7.960676550865173340e-01,-1.647171378135681152e-02,-1.921847090125083923e-02
8.598000000000000000e+03,1.550000000000000000e+01,4.199999809265136719e+00,5.861334972934173493e-09,5.644806222449005872e-08,7.960677146911621094e-01,-1.647138223052024841e-02,-1.921823434531688690e-02
8.599000000000000000e+03,1.560000038146972656e+01,4.199999809265136719e+00,5.899478239257405221e-09,5.718677797972304688e-08,7.960678339004516602e-01,-1.647096499800682068e-02,-1.921774446964263916e-02
8.600000000000000000e+03,1.569999980926513672e+01,4.199999809265136719e+00,5.937621505580636949e-09,5.793024371314459131e-08,7.960678935050964355e-01,-1.647044904530048370e-02,-1.921698637306690216e-02
8.601000000000000000e+03,1.580000019073486328e+01,4.199999809265136719e+00,5.975764771903868677e-09,5.867847718832308601e-08,7.960680127143859863e-01,-1.646982133388519287e-02,-1.921652071177959442e-02
8.602000000000000000e+03,1.589999961853027344e+01,4.199999809265136719e+00,6.013908038227100405e-09,5.943146419440381578e-08,7.960681319236755371e-01,-1.646906137466430664e-02,-1.921555958688259125e-02
8.603000000000000000e+03,1.600000000000000000e+01,4.199999809265136719e+00,6.052051304550332134e-09,6.018921538952781702e-08,7.960682511329650879e-01,-1.646815240383148193e-02,-1.921484991908073425e-02
8.604000000000000000e+03,1.610000038146972656e+01,4.199999809265136719e+00,6.090195014962773712e-09,6.095172722098141094e-08,7.960684299468994141e-01,-1.646706834435462952e-02,-1.921379007399082184e-02
8.605000000000000000e+03,1.620000076293945312e+01,4.199999809265136719e+00,6.128338281286005440e-09,6.171899968876459752e-08,7.960686087608337402e-01,-1.646578311920166016e-02,-1.921254582703113556e-02
8.606000000000000000e+03,1.629999923706054688e+01,4.199999809265136719e+00,6.166480659430817468e-09,6.249101147659530398e-08,7.960687279701232910e-01,-1.646426692605018616e-02,-1.921069994568824768e-02
8.607000000000000000e+03,1.639999961853027344e+01,4.199999809265136719e+00,6.204624369843259046e-09,6.326779811161031830e-08,7.960689067840576172e-01,-1.646248623728752136e-02,-1.920937187969684601e-02
8.608000000000000000e+03,1.650000000000000000e+01,4.199999809265136719e+00,6.242767636166490774e-09,6.404935248838228290e-08,7.960690259933471680e-01,-1.646040007472038269e-02,-1.920736581087112427e-02
8.609000000000000000e+03,1.660000038146972656e+01,4.199999809265136719e+00,6.280910902489722503e-09,6.483565329062912497e-08,7.960691452026367188e-01,-1.645796559751033783e-02,-1.920502446591854095e-02
8.610000000000000000e+03,1.670000076293945312e+01,4.199999809265136719e+00,6.319054168812954231e-09,6.562672183463291731e-08,7.960692048072814941e-01,-1.645513251423835754e-02,-1.920229382812976837e-02
8.611000000000000000e+03,1.679999923706054688e+01,4.199999809265136719e+00,6.357196546957766259e-09,6.642252969868422952e-08,7.960692048072814941e-01,-1.645184308290481567e-02,-1.919873617589473724e-02
8.612000000000000000e+03,1.689999961853027344e+01,4.199999809265136719e+00,6.395339813280997987e-09,6.722311951534720720e-08,7.960690855979919434e-01,-1.644803583621978760e-02,-1.919544301927089691e-02
8.613000000000000000e+03,1.700000000000000000e+01,4.199999809265136719e+00,6.433483079604229715e-09,6.802846286291241995e-08,7.960688471794128418e-01,-1.644363626837730408e-02,-1.919119432568550110e-02
8.614000000000000000e+03,1.710000038146972656e+01,4.199999809265136719e+00,6.471625901838251593e-09,6.883856684680722537e-08,7.960684895515441895e-01,-1.643856614828109741e-02,-1.918629743158817291e-02
8.615000000000000000e+03,1.720000076293945312e+01,4.199999809265136719e+00,6.509768724072273471e-09,6.965343146703162347e-08,7.960678935050964355e-01,-1.643273793160915375e-02,-1.918067410588264465e-02
8.616000000000000000e+03,1.729999923706054688e+01,4.199999809265136719e+00,6.547910658127875649e-09,7.047303540730354143e-08,7.960669994354248047e-01,-1.642604917287826538e-02,-1.917385682463645935e-02
8.617000000000000000e+03,1.739999961853027344e+01,4.199999809265136719e+00,6.586053480361897527e-09,7.129741419475976727e-08,7.960656881332397461e-01,-1.641838997602462769e-02,-1.916690915822982788e-02
8.618000000000000000e+03,1.750000000000000000e+01,4.199999809265136719e+00,6.624195858506709556e-09,7.212656072397294338e-08,7.960638999938964844e-01,-1.640964113175868988e-02,-1.915858872234821320e-02
8.619000000000000000e+03,1.760000038146972656e+01,4.199999809265136719e+00,6.662337792562311733e-09,7.296046078408835456e-08,7.960614562034606934e-01,-1.639966480433940887e-02,-1.914919167757034302e-02
8.620000000000000000e+03,1.770000076293945312e+01,4.199999809265136719e+00,6.700479726617913911e-09,7.379911437510600081e-08,7.960582375526428223e-01,-1.638831757009029388e-02,-1.913863234221935272e-02
8.621000000000000000e+03,1.779999923706054688e+01,4.199999809265136719e+00,6.738620328405886539e-09,7.464252149702588213e-08,7.960538864135742188e-01,-1.637544296681880951e-02,-1.912645995616912842e-02
8.622000000000000000e+03,1.789999961853027344e+01,4.199999809265136719e+00,6.776761374283069017e-09,7.549069636070271372e-08,7.960482239723205566e-01,-1.636087521910667419e-02,-1.911377534270286560e-02
8.623000000000000000e+03,1.800000000000000000e+01,4.199999809265136719e+00,6.814901531981831795e-09,7.634363186070913798e-08,7.960408329963684082e-01,-1.634444855153560638e-02,-1.909941621124744415e-02
8.624000000000000000e+03,1.810000038146972656e+01,4.199999809265136719e+00,6.853041245591384723e-09,7.720132799704515492e-08,7.960312366485595703e-01,-1.632599718868732452e-02,-1.908380538225173950e-02
8.625000000000000000e+03,1.820000076293945312e+01,4.199999809265136719e+00,6.891180071022517950e-09,7.806378476971076452e-08,7.960188984870910645e-01,-1.630538143217563629e-02,-1.906706765294075012e-02
8.626000000000000000e+03,1.829999923706054688e+01,4.199999809265136719e+00,6.929317120096811777e-09,7.893098086242389400e-08,7.960029840469360352e-01,-1.628250628709793091e-02,-1.904905959963798523e-02
8.627000000000000000e+03,1.839999961853027344e+01,4.199999809265136719e+00,6.967453280992685904e-09,7.980295180232133134e-08,7.959826588630676270e-01,-1.625736802816390991e-02,-1.903134770691394806e-02
8.628000000000000000e+03,1.850000000000000000e+01,4.199999809265136719e+00,7.005588109620930481e-09,8.067968337854836136e-08,7.959566712379455566e-01,-1.623011566698551178e-02,-1.901342719793319702e-02
8.629000000000000000e+03,1.860000038146972656e+01,4.199999809265136719e+00,7.043720717803125808e-09,8.156117559110498405e-08,7.959237098693847656e-01,-1.620117202401161194e-02,-1.899666339159011841e-02
8.630000000000000000e+03,1.870000076293945312e+01,4.199999809265136719e+00,7.081851105539271884e-09,8.244741422913648421e-08,7.958821058273315430e-01,-1.617139205336570740e-02,-1.898248493671417236e-02
8.631000000000000000e+03,1.879999923706054688e+01,4.199999809265136719e+00,7.119977496472529310e-09,8.333839929264286184e-08,7.958298921585083008e-01,-1.614232733845710754e-02,-1.897252723574638367e-02
8.632000000000000000e+03,1.889999961853027344e+01,4.199999809265136719e+00,7.158101666959737486e-09,8.423415920333354734e-08,7.957649230957031250e-01,-1.611662283539772034e-02,-1.897070556879043579e-02
8.633000000000000000e+03,1.900000000000000000e+01,4.199999809265136719e+00,7.196221396554847161e-09,8.513466553949911031e-08,7.956851720809936523e-01,-1.609857194125652313e-02,-1.897950097918510437e-02
8.634000000000000000e+03,1.910000038146972656e+01,4.199999809265136719e+00,7.234336685257858335e-09,8.603993251199426595e-08,7.955890893936157227e-01,-1.609486527740955353e-02,-1.900378987193107605e-02
8.635000000000000000e+03,1.920000076293945312e+01,4.199999809265136719e+00,7.272447088979561158e-09,8.694994590996429906e-08,7.954763174057006836e-01,-1.611544564366340637e-02,-1.904860325157642365e-02
8.636000000000000000e+03,1.929999923706054688e+01,4.199999809265136719e+00,7.310551275452326081e-09,8.786469152255449444e-08,7.953491806983947754e-01,-1.617419533431529999e-02,-1.911812089383602142e-02
8.637000000000000000e+03,1.939999961853027344e+01,4.199999809265136719e+00,7.348651465122202353e-09,8.878420487690164009e-08,7.952144145965576172e-01,-1.628872193396091461e-02,-1.921549253165721893e-02
8.638000000000000000e+03,1.950000000000000000e+01,4.199999809265136719e+00,7.386748102078399825e-09,8.970846465672366321e-08,7.950847148895263672e-01,-1.647800579667091370e-02,-1.933547481894493103e-02
8.639000000000000000e+03,1.960000038146972656e+01,4.199999809265136719e+00,7.424843850856177596e-09,9.063746375659320620e-08,7.949783802032470703e-01,-1.675662212073802948e-02,-1.946390792727470398e-02
8.640000000000000000e+03,1.970000076293945312e+01,4.199999809265136719e+00,7.462941375990794768e-09,9.157121638736498426e-08,7.949151992797851562e-01,-1.712561212480068207e-02,-1.957297697663307190e-02
8.641000000000000000e+03,1.979999923706054688e+01,4.199999809265136719e+00,7.501045118374349840e-09,9.250970833818428218e-08,7.949073314666748047e-01,-1.756308972835540771e-02,-1.962367072701454163e-02
8.642000000000000000e+03,1.989999961853027344e+01,4.199999809265136719e+00,7.539156854363682214e-09,9.345298934704260319e-08,7.949477434158325195e-01,-1.802133768796920776e-02,-1.957859657704830170e-02
8.643000000000000000e+03,2.000000000000000000e+01,4.199999809265136719e+00,7.577278360315631289e-09,9.440104520308523206e-08,7.950055599212646484e-01,-1.843613758683204651e-02,-1.941522955894470215e-02
8.644000000000000000e+03,0.000000000000000000e+00,4.300000190734863281e+00,2.078958414271051955e-38,-4.801594029559844088e-39,7.445546984672546387e-01,2.233663946390151978e-01,-2.983823716640472412e-01
8.645000000000000000e+03,1.000000014901161194e-01,4.300000190734863281e+00,3.226403519351883631e-11,-3.694257746933438114e-11,7.447677850723266602e-01,2.240768074989318848e-01,-3.250252604484558105e-01
8.646000000000000000e+03,2.000000029802322388e-01,4.300000190734863281e+00,6.451580936150946854e-11,-6.825959936174186282e-11,7.421305775642395020e-01,2.161443084478378296e-01,-3.069348037242889404e-01
8.647000000000000000e+03,3.000000119209289551e-01,4.300000190734863281e+00,9.692017327589397269e-11,-9.393093941545416214e-11,7.412447929382324219e-01,2.025110274553298950e-01,-2.891199588775634766e-01
8.648000000000000000e+03,4.000000059604644775e-01,4.300000190734863281e+00,1.295636375964193121e-10,-1.137665378569963082e-10,7.410867810249328613e-01,1.852461546659469604e-01,-2.701905965805053711e-01
8.649000000000000000e+03,5.000000000000000000e-01,4.300000190734863281e+00,1.624488321638750676e-10,-1.275099192898920819e-10,7.404846549034118652e-01,1.663191020488739014e-01,-2.498003840446472168e-01
8.650000000000000000e+03,6.000000238418579102e-01,4.300000190734863281e+00,1.955189898872333742e-10,-1.349192008115451813e-10,7.386419773101806641e-01,1.472294330596923828e-01,-2.283388525247573853e-01
8.651000000000000000e+03,6.999999880790710449e-01,4.300000190734863281e+00,2.286909273063741921e-10,-1.358100160109287913e-10,7.352911233901977539e-01,1.289336383342742920e-01,-2.065084427595138550e-01
8.652000000000000000e+03,8.000000119209289551e-01,4.300000190734863281e+00,2.618814054500262500e-10,-1.300667629156038174e-10,7.305830121040344238e-01,1.119434013962745667e-01,-1.850069612264633179e-01
8.653000000000000000e+03,8.999999761581420898e-01,4.300000190734863281e+00,2.950213962016334790e-10,-1.176358177534808647e-10,7.248799800872802734e-01,9.646733105182647705e-02,-1.643771678209304810e-01
8.654000000000000000e+03,1.000000000000000000e+00,4.300000190734863281e+00,3.280611060585414407e-10,-9.851272575467362458e-11,7.185935974121093750e-01,8.253271877765655518e-02,-1.449780166149139404e-01
8.655000000000000000e+03,1.100000023841857910e+00,4.300000190734863281e+00,3.609692822426069370e-10,-7.272922541989856882e-11,7.120928764343261719e-01,7.006997615098953247e-02,-1.270120292901992798e-01
8.656000000000000000e+03,1.200000047683715820e+00,4.300000190734863281e+00,3.937303261203339844e-10,-4.034247241824218122e-11,7.056708931922912598e-01,5.896484851837158203e-02,-1.105670183897018433e-01
8.657000000000000000e+03,1.299999952316284180e+00,4.300000190734863281e+00,4.263405184445900886e-10,-1.426859823870640920e-12,6.995414495468139648e-01,4.908837750554084778e-02,-9.565293788909912109e-02
8.658000000000000000e+03,1.399999976158142090e+00,4.300000190734863281e+00,4.588050772635909880e-10,4.393234040445115340e-11,6.938490867614746094e-01,4.031268507242202759e-02,-8.223022520542144775e-02
8.659000000000000000e+03,1.500000000000000000e+00,4.300000190734863281e+00,4.911349660297048558e-10,9.564313230292498247e-11,6.886827349662780762e-01,3.251856938004493713e-02,-7.022925466299057007e-02
8.660000000000000000e+03,1.600000023841857910e+00,4.300000190734863281e+00,5.233449229535835912e-10,1.536102356425317339e-10,6.840888261795043945e-01,2.559838816523551941e-02,-5.956383794546127319e-02
8.661000000000000000e+03,1.700000047683715820e+00,4.300000190734863281e+00,5.554518511807771119e-10,2.177373836786955508e-10,6.800825595855712891e-01,1.945657283067703247e-02,-5.013974383473396301e-02
8.662000000000000000e+03,1.799999952316284180e+00,4.300000190734863281e+00,5.874734587685281895e-10,2.879288751866937446e-10,6.766569018363952637e-01,1.400895882397890091e-02,-4.186022281646728516e-02
8.663000000000000000e+03,1.899999976158142090e+00,4.300000190734863281e+00,6.194275092852308262e-10,3.640912293878528772e-10,6.737894415855407715e-01,9.181588888168334961e-03,-3.462959080934524536e-02
8.664000000000000000e+03,2.000000000000000000e+00,4.300000190734863281e+00,6.513311001654642496e-10,4.461334635053049169e-10,6.714477539062500000e-01,4.909451585263013840e-03,-2.835507132112979889e-02
8.665000000000000000e+03,2.099999904632568359e+00,4.300000190734863281e+00,6.832002186207830619e-10,5.339679809424069390e-10,6.695932745933532715e-01,1.135215628892183304e-03,-2.294830232858657837e-02
8.666000000000000000e+03,2.200000047683715820e+00,4.300000190734863281e+00,7.150498526620197026e-10,6.275115427278876723e-10,6.681841015815734863e-01,-2.191906794905662537e-03,-1.832596771419048309e-02
8.667000000000000000e+03,2.299999952316284180e+00,4.300000190734863281e+00,7.468932694543184425e-10,7.266841017816716430e-10,6.671770811080932617e-01,-5.117078311741352081e-03,-1.440978329628705978e-02
8.668000000000000000e+03,2.400000095367431641e+00,4.300000190734863281e+00,7.787425704286476957e-10,8.314108845830503469e-10,6.665291786193847656e-01,-7.680709939450025558e-03,-1.112721953541040421e-02
8.669000000000000000e+03,2.500000000000000000e+00,4.300000190734863281e+00,8.106079696368340137e-10,9.416204482803891551e-10,6.661988496780395508e-01,-9.919076226651668549e-03,-8.410654962062835693e-03
8.670000000000000000e+03,2.599999904632568359e+00,4.300000190734863281e+00,8.424986819299817853e-10,1.057246623581420408e-09,6.661463379859924316e-01,-1.186491642147302628e-02,-6.198012735694646835e-03
8.671000000000000000e+03,2.700000047683715820e+00,4.300000190734863281e+00,8.744224788692633865e-10,1.178227293507916329e-09,6.663342714309692383e-01,-1.354786846786737442e-02,-4.432030022144317627e-03
8.672000000000000000e+03,2.799999952316284180e+00,4.300000190734863281e+00,9.063856332147679495e-10,1.304504060328781634e-09,6.667279601097106934e-01,-1.499482896178960800e-02,-3.060048678889870644e-03
8.673000000000000000e+03,2.900000095367431641e+00,4.300000190734863281e+00,9.383934740370136751e-10,1.436023522316531853e-09,6.672954559326171875e-01,-1.623029075562953949e-02,-2.034274628385901451e-03
8.674000000000000000e+03,3.000000000000000000e+00,4.300000190734863281e+00,9.704501646723429076e-10,1.572735386368151467e-09,6.680076122283935547e-01,-1.727656088769435883e-02,-1.310750260017812252e-03
8.675000000000000000e+03,3.099999904632568359e+00,4.300000190734863281e+00,1.002558924767527060e-09,1.714593689250420994e-09,6.688381433486938477e-01,-1.815399900078773499e-02,-8.498769602738320827e-04
8.676000000000000000e+03,3.200000047683715820e+00,4.300000190734863281e+00,1.034722196813220307e-09,1.861556575555312065e-09,6.697632670402526855e-01,-1.888118125498294830e-02,-6.156409508548676968e-04
8.677000000000000000e+03,3.299999952316284180e+00,4.300000190734863281e+00,1.066941424099354663e-09,2.013584410320845564e-09,6.707618832588195801e-01,-1.947504654526710510e-02,-5.753704463131725788e-04
8.678000000000000000e+03,3.400000095367431641e+00,4.300000190734863281e+00,1.099217605826652289e-09,2.170642110499443334e-09,6.718151569366455078e-01,-1.995104923844337463e-02,-7.000038749538362026e-04
8.679000000000000000e+03,3.500000000000000000e+00,4.300000190734863281e+00,1.131551075062020573e-09,2.332696702467274008e-09,6.729065775871276855e-01,-2.032324858009815216e-02,-9.630874847061932087e-04
8.680000000000000000e+03,3.599999904632568359e+00,4.300000190734863281e+00,1.163941720783157052e-09,2.499718654291882558e-09,6.740217804908752441e-01,-2.060443349182605743e-02,-1.341316150501370430e-03
8.681000000000000000e+03,3.700000047683715820e+00,4.300000190734863281e+00,1.196388876856246952e-09,2.671681986754492755e-09,6.751480698585510254e-01,-2.080621197819709778e-02,-1.813808106817305088e-03
8.682000000000000000e+03,3.799999952316284180e+00,4.300000190734863281e+00,1.228891544080568110e-09,2.848560942680933294e-09,6.762747764587402344e-01,-2.093908563256263733e-02,-2.361897844821214676e-03
8.683000000000000000e+03,3.900000095367431641e+00,4.300000190734863281e+00,1.261448612233095901e-09,3.030335093967551074e-09,6.773926615715026855e-01,-2.101255208253860474e-02,-2.969445660710334778e-03
8.684000000000000000e+03,4.000000000000000000e+00,4.300000190734863281e+00,1.294058304956990924e-09,3.216983568421483142e-09,6.784939169883728027e-01,-2.103515528142452240e-02,-3.621895099058747292e-03
8.685000000000000000e+03,4.099999904632568359e+00,4.300000190734863281e+00,1.326719067940018704e-09,3.408488824518940419e-09,6.795721054077148438e-01,-2.101457491517066956e-02,-4.306850489228963852e-03
8.686000000000000000e+03,4.199999809265136719e+00,4.300000190734863281e+00,1.359429013803037378e-09,3.604835541182183078e-09,6.806218028068542480e-01,-2.095768973231315613e-02,-5.013363435864448547e-03
8.687000000000000000e+03,4.300000190734863281e+00,4.300000190734863281e+00,1.392186255166905084e-09,3.806010173690310694e-09,6.816388368606567383e-01,-2.087063156068325043e-02,-5.732113961130380630e-03
8.688000000000000000e+03,4.400000095367431641e+00,4.300000190734863281e+00,1.424988460563270110e-09,4.011998733233212988e-09,6.826197504997253418e-01,-2.075884863734245300e-02,-6.454754155129194260e-03
8.689000000000000000e+03,4.500000000000000000e+00,4.300000190734863281e+00,1.457833631590688128e-09,4.222791005759063410e-09,6.835619807243347168e-01,-2.062717266380786896e-02,-7.174702361226081848e-03
8.690000000000000000e+03,4.599999904632568359e+00,4.300000190734863281e+00,1.490719769847714815e-09,4.438377221305245257e-09,6.844636797904968262e-01,-2.047985792160034180e-02,-7.886096835136413574e-03
8.691000000000000000e+03,4.699999809265136719e+00,4.300000190734863281e+00,1.523644432843695995e-09,4.658748498087561529e-09,6.853235960006713867e-01,-2.032063342630863190e-02,-8.584132418036460876e-03
8.692000000000000000e+03,4.800000190734863281e+00,4.300000190734863281e+00,1.556605844221792267e-09,4.883899062946284175e-09,6.861409544944763184e-01,-2.015276066958904266e-02,-9.264951571822166443e-03
8.693000000000000000e+03,4.900000095367431641e+00,4.300000190734863281e+00,1.589601450469046995e-09,5.113820034097216194e-09,6.869155764579772949e-01,-1.997906342148780823e-02,-9.925097227096557617e-03
8.694000000000000000e+03,5.000000000000000000e+00,4.300000190734863281e+00,1.622629475228620777e-09,5.348506970648259085e-09,6.876475214958190918e-01,-1.980198360979557037e-02,-1.056233234703540802e-02
8.695000000000000000e+03,5.099999904632568359e+00,4.300000190734863281e+00,1.655687698054464363e-09,5.587954987618104497e-09,6.883373260498046875e-01,-1.962360367178916931e-02,-1.117464993149042130e-02
8.696000000000000000e+03,5.199999809265136719e+00,4.300000190734863281e+00,1.688774342589738353e-09,5.832160088203863779e-09,6.889857053756713867e-01,-1.944570057094097137e-02,-1.176064740866422653e-02
8.697000000000000000e+03,5.300000190734863281e+00,4.300000190734863281e+00,1.721887521455300885e-09,6.081120496048697532e-09,6.895936131477355957e-01,-1.926976069808006287e-02,-1.231945864856243134e-02
8.698000000000000000e+03,5.400000095367431641e+00,4.300000190734863281e+00,1.755025236249707632e-09,6.334830437992877705e-09,6.901623010635375977e-01,-1.909702271223068237e-02,-1.285023894160985947e-02
8.699000000000000000e+03,5.500000000000000000e+00,4.300000190734863281e+00,1.788185710616119195e-09,6.593289025857984598e-09,6.906929612159729004e-01,-1.892850548028945923e-02,-1.335302274674177170e-02
8.700000000000000000e+03,5.599999904632568359e+00,4.300000190734863281e+00,1.821367390242301099e-09,6.856494483287178809e-09,6.911870837211608887e-01,-1.876502484083175659e-02,-1.382776722311973572e-02
8.701000000000000000e+03,5.699999809265136719e+00,4.300000190734863281e+00,1.854568720816018867e-09,7.124445033923620940e-09,6.916461586952209473e-01,-1.860722713172435760e-02,-1.427475456148386002e-02
8.702000000000000000e+03,5.800000190734863281e+00,4.300000190734863281e+00,1.887788370069642951e-09,7.397141121856520840e-09,6.920717954635620117e-01,-1.845560409128665924e-02,-1.469455007463693619e-02
8.703000000000000000e+03,5.900000095367431641e+00,4.300000190734863281e+00,1.921024450624031488e-09,7.674579194372199709e-09,6.924655437469482422e-01,-1.831051707267761230e-02,-1.508752256631851196e-02
8.704000000000000000e+03,6.000000000000000000e+00,4.300000190734863281e+00,1.954275852256159851e-09,7.956759695559867396e-09,6.928290724754333496e-01,-1.817221008241176605e-02,-1.545471604913473129e-02
8.705000000000000000e+03,6.099999904632568359e+00,4.300000190734863281e+00,1.987541464743003417e-09,8.243683069508733752e-09,6.931639313697814941e-01,-1.804083026945590973e-02,-1.579691842198371887e-02
8.706000000000000000e+03,6.199999809265136719e+00,4.300000190734863281e+00,2.020819733772327709e-09,8.535348428040379076e-09,6.934719085693359375e-01,-1.791644096374511719e-02,-1.611508801579475403e-02
8.707000000000000000e+03,6.300000190734863281e+00,4.300000190734863281e+00,2.054109993210317953e-09,8.831757547511642770e-09,6.937543749809265137e-01,-1.779902912676334381e-02,-1.641032658517360687e-02
8.708000000000000000e+03,6.400000095367431641e+00,4.300000190734863281e+00,2.087410910789344598e-09,9.132907763387265732e-09,6.940130591392517090e-01,-1.768852770328521729e-02,-1.668342016637325287e-02
8.709000000000000000e+03,6.500000000000000000e+00,4.300000190734863281e+00,2.120721598330987945e-09,9.438800852024087362e-09,6.942494511604309082e-01,-1.758481375873088837e-02,-1.693571731448173523e-02
8.710000000000000000e+03,6.599999904632568359e+00,4.300000190734863281e+00,2.154041167656828293e-09,9.749436813422107662e-09,6.944649815559387207e-01,-1.748772524297237396e-02,-1.716822758316993713e-02
8.711000000000000000e+03,6.699999809265136719e+00,4.300000190734863281e+00,2.187368730588445942e-09,1.006481564758132663e-08,6.946610212326049805e-01,-1.739707216620445251e-02,-1.738204061985015869e-02
8.712000000000000000e+03,6.800000190734863281e+00,4.300000190734863281e+00,2.220703843036631042e-09,1.038494090721542307e-08,6.948390603065490723e-01,-1.731262914836406708e-02,-1.757832802832126617e-02
8.713000000000000000e+03,6.900000095367431641e+00,4.300000190734863281e+00,2.254045172733754043e-09,1.070980903961071817e-08,6.950002908706665039e-01,-1.723415777087211609e-02,-1.775788888335227966e-02
8.714000000000000000e+03,7.000000000000000000e+00,4.300000190734863281e+00,2.287392497635210020e-09,1.103942270930247105e-08,6.951460242271423340e-01,-1.716140285134315491e-02,-1.792203076183795929e-02
8.715000000000000000e+03,7.099999904632568359e+00,4.300000190734863281e+00,2.320745151607184198e-09,1.137378191629068169e-08,6.952773928642272949e-01,-1.709409803152084351e-02,-1.807168312370777130e-02
8.716000000000000000e+03,7.199999809265136719e+00,4.300000190734863281e+00,2.354102468515861801e-09,1.171288666057535011e-08,6.953955292701721191e-01,-1.703197509050369263e-02,-1.820782385766506195e-02
8.717000000000000000e+03,7.300000190734863281e+00,4.300000190734863281e+00,2.387464226316637905e-09,1.205674138304857479e-08,6.955015063285827637e-01,-1.697475649416446686e-02,-1.833148300647735596e-02
8.718000000000000000e+03,7.400000095367431641e+00,4.300000190734863281e+00,2.420829536831092810e-09,1.240534164281825724e-08,6.955963373184204102e-01,-1.692217215895652771e-02,-1.844329573214054108e-02
8.719000000000000000e+03,7.500000000000000000e+00,4.300000190734863281e+00,2.454198400059226515e-09,1.275869099259807626e-08,6.956808567047119141e-01,-1.687394827604293823e-02,-1.854439266026020050e-02
8.720000000000000000e+03,7.599999904632568359e+00,4.300000190734863281e+00,2.487569927822619320e-09,1.311678854420961216e-08,6.957560777664184570e-01,-1.682981848716735840e-02,-1.863550767302513123e-02
8.721000000000000000e+03,7.699999809265136719e+00,4.300000190734863281e+00,2.520944120121271226e-09,1.347963607400970432e-08,6.958227157592773438e-01,-1.678952202200889587e-02,-1.871742121875286102e-02
8.722000000000000000e+03,7.800000190734863281e+00,4.300000190734863281e+00,2.554320754910577307e-09,1.384723535835519215e-08,6.958816051483154297e-01,-1.675280928611755371e-02,-1.879095099866390228e-02
8.723000000000000000e+03,7.900000095367431641e+00,4.300000190734863281e+00,2.587699388101327713e-09,1.421958373271081655e-08,6.959334015846252441e-01,-1.671943254768848419e-02,-1.885652542114257812e-02
8.724000000000000000e+03,8.000000000000000000e+00,4.300000190734863281e+00,2.621079575604312595e-09,1.459668386161183662e-08,6.959787607192993164e-01,-1.668915897607803345e-02,-1.891506463289260864e-02
8.725000000000000000e+03,8.100000381469726562e+00,4.300000190734863281e+00,2.654461539464136877e-09,1.497853752141509176e-08,6.960183382034301758e-01,-1.666176132857799530e-02,-1.896718330681324005e-02
8.726000000000000000e+03,8.199999809265136719e+00,4.300000190734863281e+00,2.687844391502380859e-09,1.536514027122848347e-08,6.960527300834655762e-01,-1.663702912628650665e-02,-1.901308447122573853e-02
8.727000000000000000e+03,8.300000190734863281e+00,4.300000190734863281e+00,2.721228575808254391e-09,1.575649832830094965e-08,6.960823535919189453e-01,-1.661475561559200287e-02,-1.905394159257411957e-02
8.728000000000000000e+03,8.399999618530273438e+00,4.300000190734863281e+00,2.754613426247942698e-09,1.615260636356197210e-08,6.961078047752380371e-01,-1.659474708139896393e-02,-1.908951811492443085e-02
8.729000000000000000e+03,8.500000000000000000e+00,4.300000190734863281e+00,2.787999386910655630e-09,1.655347325879574782e-08,6.961293816566467285e-01,-1.657682470977306366e-02,-1.912100985646247864e-02
8.730000000000000000e+03,8.600000381469726562e+00,4.300000190734863281e+00,2.821386013707183338e-09,1.695909368493175862e-08,6.961476802825927734e-01,-1.656081154942512512e-02,-1.914829201996326447e-02
8.731000000000000000e+03,8.699999809265136719e+00,4.300000190734863281e+00,2.854772862548315970e-09,1.736946586561316508e-08,6.961628794670104980e-01,-1.654654927551746368e-02,-1.917175948619842529e-02
8.732000000000000000e+03,8.800000190734863281e+00,4.300000190734863281e+00,2.888160377523263378e-09,1.778459512991048541e-08,6.961754560470581055e-01,-1.653388701379299164e-02,-1.919232495129108429e-02
8.733000000000000000e+03,8.899999618530273438e+00,4.300000190734863281e+00,2.921547892498210786e-09,1.820447792511004081e-08,6.961856484413146973e-01,-1.652268320322036743e-02,-1.920959167182445526e-02
8.734000000000000000e+03,9.000000000000000000e+00,4.300000190734863281e+00,2.954936073606972968e-09,1.862911780392551009e-08,6.961937546730041504e-01,-1.651280559599399567e-02,-1.922460086643695831e-02
8.735000000000000000e+03,9.100000381469726562e+00,4.300000190734863281e+00,2.988324254715735151e-09,1.905851654271373263e-08,6.962000131607055664e-01,-1.650413125753402710e-02,-1.923708431422710419e-02
8.736000000000000000e+03,9.199999809265136719e+00,4.300000190734863281e+00,3.021712435824497334e-09,1.949266525969051145e-08,6.962047219276428223e-01,-1.649654842913150787e-02,-1.924730278551578522e-02
8.737000000000000000e+03,9.300000190734863281e+00,4.300000190734863281e+00,3.055100838977864441e-09,1.993157638935372233e-08,6.962080001831054688e-01,-1.648994907736778259e-02,-1.925603672862052917e-02
8.738000000000000000e+03,9.399999618530273438e+00,4.300000190734863281e+00,3.088489020086626624e-09,2.037523927356232889e-08,6.962100863456726074e-01,-1.648423820734024048e-02,-1.926277205348014832e-02
8.739000000000000000e+03,9.500000000000000000e+00,4.300000190734863281e+00,3.121877423239993732e-09,2.082366279410052812e-08,6.962111592292785645e-01,-1.647932454943656921e-02,-1.926843263208866119e-02
8.740000000000000000e+03,9.600000381469726562e+00,4.300000190734863281e+00,3.155265826393360840e-09,2.127684339825464122e-08,6.962113380432128906e-01,-1.647512614727020264e-02,-1.927265152335166931e-02
8.741000000000000000e+03,9.699999809265136719e+00,4.300000190734863281e+00,3.188653785457518097e-09,2.173477753331098938e-08,6.962108016014099121e-01,-1.647157035768032074e-02,-1.927558518946170807e-02
8.742000000000000000e+03,9.800000190734863281e+00,4.300000190734863281e+00,3.222042188610885205e-09,2.219747408105376962e-08,6.962096095085144043e-01,-1.646858267486095428e-02,-1.927792839705944061e-02
8.743000000000000000e+03,9.899999618530273438e+00,4.300000190734863281e+00,3.255429925630437538e-09,2.266492415969878493e-08,6.962078809738159180e-01,-1.646610349416732788e-02,-1.927907951176166534e-02
8.744000000000000000e+03,1.000000000000000000e+01,4.300000190734863281e+00,3.288817884694594795e-09,2.313713665103023231e-08,6.962057352066040039e-01,-1.646407321095466614e-02,-1.927988603711128235e-02
8.745000000000000000e+03,1.010000038146972656e+01,4.300000190734863281e+00,3.322205621714147128e-09,2.361410622597759357e-08,6.962032318115234375e-01,-1.646243967115879059e-02,-1.927990838885307312e-02
8.746000000000000000e+03,1.019999980926513672e+01,4.300000190734863281e+00,3.355593136689094536e-09,2.409582933182718989e-08,6.962004899978637695e-01,-1.646115444600582123e-02,-1.927922479808330536e-02
8.747000000000000000e+03,1.030000019073486328e+01,4.300000190734863281e+00,3.388980651664041943e-09,2.458231662672005768e-08,6.961975693702697754e-01,-1.646017655730247498e-02,-1.927849836647510529e-02
8.748000000000000000e+03,1.039999961853027344e+01,4.300000190734863281e+00,3.422367722549779501e-09,2.507355567615832115e-08,6.961944699287414551e-01,-1.645946316421031952e-02,-1.927703432738780975e-02
8.749000000000000000e+03,1.050000000000000000e+01,4.300000190734863281e+00,3.455754793435517058e-09,2.556955891463985608e-08,6.961912512779235840e-01,-1.645898260176181793e-02,-1.927566528320312500e-02
8.750000000000000000e+03,1.060000038146972656e+01,4.300000190734863281e+00,3.489141864321254616e-09,2.607032101309414429e-08,6.961880326271057129e-01,-1.645870134234428406e-02,-1.927387341856956482e-02
8.751000000000000000e+03,1.069999980926513672e+01,4.300000190734863281e+00,3.522528491117782323e-09,2.657583664245066757e-08,6.961847543716430664e-01,-1.645858958363533020e-02,-1.927171088755130768e-02
8.752000000000000000e+03,1.080000019073486328e+01,4.300000190734863281e+00,3.555915339958914956e-09,2.708611646085046232e-08,6.961814761161804199e-01,-1.645862311124801636e-02,-1.926979795098304749e-02
8.753000000000000000e+03,1.089999961853027344e+01,4.300000190734863281e+00,3.589301522666232813e-09,2.760114803379565274e-08,6.961782574653625488e-01,-1.645877957344055176e-02,-1.926740445196628571e-02
8.754000000000000000e+03,1.100000000000000000e+01,4.300000190734863281e+00,3.622687927418155596e-09,2.812094557214095403e-08,6.961750984191894531e-01,-1.645903848111629486e-02,-1.926533132791519165e-02
8.755000000000000000e+03,1.110000038146972656e+01,4.300000190734863281e+00,3.656074332170078378e-09,2.864550197045900859e-08,6.961719989776611328e-01,-1.645938120782375336e-02,-1.926303282380104065e-02
8.756000000000000000e+03,1.119999980926513672e+01,4.300000190734863281e+00,3.689460292832791311e-09,2.917481012332245882e-08,6.961690187454223633e-01,-1.645979098975658417e-02,-1.926053315401077271e-02
8.757000000000000000e+03,1.130000019073486328e+01,4.300000190734863281e+00,3.722846253495504243e-09,2.970888424158601993e-08,6.961660981178283691e-01,-1.646025665104389191e-02,-1.925842836499214172e-02
8.758000000000000000e+03,1.139999961853027344e+01,4.300000190734863281e+00,3.756231770069007325e-09,3.024771189075181610e-08,6.961632966995239258e-01,-1.646076329052448273e-02,-1.925596781075000763e-02
8.759000000000000000e+03,1.150000000000000000e+01,4.300000190734863281e+00,3.789617508687115333e-09,3.079130195260404435e-08,6.961606144905090332e-01,-1.646130159497261047e-02,-1.925393752753734589e-02
8.760000000000000000e+03,1.160000038146972656e+01,4.300000190734863281e+00,3.823003247305223340e-09,3.133965265078586526e-08,6.961580514907836914e-01,-1.646186225116252899e-02,-1.925176754593849182e-02
8.761000000000000000e+03,1.169999980926513672e+01,4.300000190734863281e+00,3.856388541834121497e-09,3.189275687986992125e-08,6.961556673049926758e-01,-1.646243594586849213e-02,-1.924947276711463928e-02
8.762000000000000000e+03,1.180000019073486328e+01,4.300000190734863281e+00,3.889773836363019655e-09,3.245062529799724871e-08,6.961533427238464355e-01,-1.646301522850990295e-02,-1.924763433635234833e-02
8.763000000000000000e+03,1.189999961853027344e+01,4.300000190734863281e+00,3.923159130891917812e-09,3.301324724702681124e-08,6.961511373519897461e-01,-1.646359823644161224e-02,-1.924549043178558350e-02
8.764000000000000000e+03,1.200000000000000000e+01,4.300000190734863281e+00,3.956544425420815969e-09,3.358063338509964524e-08,6.961491107940673828e-01,-1.646417565643787384e-02,-1.924381405115127563e-02
8.765000000000000000e+03,1.210000038146972656e+01,4.300000190734863281e+00,3.989929719949714126e-09,3.415278015950207191e-08,6.961471438407897949e-01,-1.646474376320838928e-02,-1.924203149974346161e-02
8.766000000000000000e+03,1.219999980926513672e+01,4.300000190734863281e+00,4.023314570389402434e-09,3.472968046480673365e-08,6.961453557014465332e-01,-1.646530255675315857e-02,-1.924014277756214142e-02
8.767000000000000000e+03,1.230000019073486328e+01,4.300000190734863281e+00,4.056699420829090741e-09,3.531134140644098807e-08,6.961436271667480469e-01,-1.646584644913673401e-02,-1.923872902989387512e-02
8.768000000000000000e+03,1.239999961853027344e+01,4.300000190734863281e+00,4.090084271268779048e-09,3.589775943169115635e-08,6.961420774459838867e-01,-1.646637171506881714e-02,-1.923701725900173187e-02
8.769000000000000000e+03,1.250000000000000000e+01,4.300000190734863281e+00,4.123469121708467355e-09,3.648894164598459611e-08,6.961405873298645020e-01,-1.646688021719455719e-02,-1.923577859997749329e-02
8.770000000000000000e+03,1.260000038146972656e+01,4.300000190734863281e+00,4.156853972148155663e-09,3.708488449660762853e-08,6.961392164230346680e-01,-1.646736823022365570e-02,-1.923443377017974854e-02
8.771000000000000000e+03,1.269999980926513672e+01,4.300000190734863281e+00,4.190238378498634120e-09,3.768557732541921723e-08,6.961379051208496094e-01,-1.646783575415611267e-02,-1.923297904431819916e-02
8.772000000000000000e+03,1.280000019073486328e+01,4.300000190734863281e+00,4.223623228938322427e-09,3.829103789598775620e-08,6.961367726325988770e-01,-1.646828092634677887e-02,-1.923199184238910675e-02
8.773000000000000000e+03,1.289999961853027344e+01,4.300000190734863281e+00,4.257007635288800884e-09,3.890125199745853024e-08,6.961356401443481445e-01,-1.646870560944080353e-02,-1.923069916665554047e-02
8.774000000000000000e+03,1.300000000000000000e+01,4.300000190734863281e+00,4.290392041639279341e-09,3.951623028797257575e-08,6.961346268653869629e-01,-1.646910794079303741e-02,-1.922986842691898346e-02
8.775000000000000000e+03,1.310000038146972656e+01,4.300000190734863281e+00,4.323776892078967649e-09,4.013596566210253513e-08,6.961337327957153320e-01,-1.646948792040348053e-02,-1.922891661524772644e-02
8.776000000000000000e+03,1.319999980926513672e+01,4.300000190734863281e+00,4.357161298429446106e-09,4.076045456713472959e-08,6.961328387260437012e-01,-1.646984554827213287e-02,-1.922784373164176941e-02
8.777000000000000000e+03,1.330000019073486328e+01,4.300000190734863281e+00,4.390545704779924563e-09,4.138971121392387431e-08,6.961320638656616211e-01,-1.647018268704414368e-02,-1.922721974551677704e-02
8.778000000000000000e+03,1.339999961853027344e+01,4.300000190734863281e+00,4.423929667041193170e-09,4.202372139161525411e-08,6.961313486099243164e-01,-1.647049747407436371e-02,-1.922627538442611694e-02
8.779000000000000000e+03,1.350000000000000000e+01,4.300000190734863281e+00,4.457314517480881477e-09,4.266249220563622657e-08,6.961307525634765625e-01,-1.647079177200794220e-02,-1.922577619552612305e-02
8.780000000000000000e+03,1.360000038146972656e+01,4.300000190734863281e+00,4.490698923831359934e-09,4.330602720870047051e-08,6.961301565170288086e-01,-1.647106558084487915e-02,-1.922513917088508606e-02
8.781000000000000000e+03,1.369999980926513672e+01,4.300000190734863281e+00,4.524082886092628542e-09,4.395431218995327072e-08,6.961296200752258301e-01,-1.647131890058517456e-02,-1.922436244785785675e-02
8.782000000000000000e+03,1.380000019073486328e+01,4.300000190734863281e+00,4.557467292443106999e-09,4.460736136024934240e-08,6.961291432380676270e-01,-1.647155359387397766e-02,-1.922401785850524902e-02
8.783000000000000000e+03,1.389999961853027344e+01,4.300000190734863281e+00,4.590851698793585456e-09,4.526516761416132795e-08,6.961286664009094238e-01,-1.647176779806613922e-02,-1.922333426773548126e-02
8.784000000000000000e+03,1.400000000000000000e+01,4.300000190734863281e+00,4.624236105144063913e-09,4.592773450440290617e-08,6.961283087730407715e-01,-1.647196337580680847e-02,-1.922307722270488739e-02
8.785000000000000000e+03,1.410000038146972656e+01,4.300000190734863281e+00,4.657620511494542370e-09,4.659506558368775586e-08,6.961279511451721191e-01,-1.647214032709598541e-02,-1.922266557812690735e-02
8.786000000000000000e+03,1.419999980926513672e+01,4.300000190734863281e+00,4.691004473755810977e-09,4.726714664116116182e-08,6.961276531219482422e-01,-1.647229865193367004e-02,-1.922209560871124268e-02
8.787000000000000000e+03,1.430000019073486328e+01,4.300000190734863281e+00,4.724388880106289434e-09,4.794399188767783926e-08,6.961274147033691406e-01,-1.647243648767471313e-02,-1.922193914651870728e-02
8.788000000000000000e+03,1.439999961853027344e+01,4.300000190734863281e+00,4.757772842367558042e-09,4.862559066509675176e-08,6.961271762847900391e-01,-1.647255383431911469e-02,-1.922142505645751953e-02
8.789000000000000000e+03,1.450000000000000000e+01,4.300000190734863281e+00,4.791157248718036499e-09,4.931195718427261454e-08,6.961269378662109375e-01,-1.647265069186687469e-02,-1.922131702303886414e-02
8.790000000000000000e+03,1.460000038146972656e+01,4.300000190734863281e+00,4.824541655068514956e-09,5.000308078706439119e-08,6.961268186569213867e-01,-1.647272519767284393e-02,-1.922103390097618103e-02
8.791000000000000000e+03,1.469999980926513672e+01,4.300000190734863281e+00,4.857925617329783563e-09,5.069895792075840291e-08,6.961266398429870605e-01,-1.647277548909187317e-02,-1.922057196497917175e-02
8.792000000000000000e+03,1.480000019073486328e+01,4.300000190734863281e+00,4.891310023680262020e-09,5.139959924349568610e-08,6.961265206336975098e-01,-1.647280156612396240e-02,-1.922050118446350098e-02
8.793000000000000000e+03,1.489999961853027344e+01,4.300000190734863281e+00,4.924693985941530627e-09,5.210499409713520436e-08,6.961264610290527344e-01,-1.647279784083366394e-02,-1.922004856169223785e-02
8.794000000000000000e+03,1.500000000000000000e+01,4.300000190734863281e+00,4.958078392292009084e-09,5.281515669253167289e-08,6.961264014244079590e-01,-1.647276245057582855e-02,-1.921997591853141785e-02
8.795000000000000000e+03,1.510000038146972656e+01,4.300000190734863281e+00,4.991462354553277692e-09,5.353007637154405529e-08,6.961264014244079590e-01,-1.647269167006015778e-02,-1.921970024704933167e-02
8.796000000000000000e+03,1.519999980926513672e+01,4.300000190734863281e+00,5.024846760903756149e-09,5.424974602874499396e-08,6.961264014244079590e-01,-1.647257991135120392e-02,-1.921921223402023315e-02
8.797000000000000000e+03,1.530000019073486328e+01,4.300000190734863281e+00,5.058230723165024756e-09,5.497418698041656171e-08,6.961264610290527344e-01,-1.647242158651351929e-02,-1.921908184885978699e-02
8.798000000000000000e+03,1.539999961853027344e+01,4.300000190734863281e+00,5.091614685426293363e-09,5.570337435756300692e-08,6.961265206336975098e-01,-1.647220924496650696e-02,-1.921852864325046539e-02
8.799000000000000000e+03,1.550000000000000000e+01,4.300000190734863281e+00,5.124999091776771820e-09,5.643733302918008121e-08,6.961266398429870605e-01,-1.647193729877471924e-02,-1.921831071376800537e-02
8.800000000000000000e+03,1.560000038146972656e+01,4.300000190734863281e+00,5.158383498127250277e-09,5.717604878441306937e-08,6.961267590522766113e-01,-1.647159457206726074e-02,-1.921783760190010071e-02
8.801000000000000000e+03,1.569999980926513672e+01,4.300000190734863281e+00,5.191767460388518884e-09,5.791951451783461380e-08,6.961269378662109375e-01,-1.647116988897323608e-02,-1.921709626913070679e-02
8.802000000000000000e+03,1.580000019073486328e+01,4.300000190734863281e+00,5.225151866738997342e-09,5.866774799301310850e-08,6.961271762847900391e-01,-1.647065021097660065e-02,-1.921664737164974213e-02
8.803000000000000000e+03,1.589999961853027344e+01,4.300000190734863281e+00,5.258535829000265949e-09,5.942073499909383827e-08,6.961274147033691406e-01,-1.647002249956130981e-02,-1.921569928526878357e-02
8.804000000000000000e+03,1.600000000000000000e+01,4.300000190734863281e+00,5.291920235350744406e-09,6.017848619421783951e-08,6.961277127265930176e-01,-1.646926626563072205e-02,-1.921499893069267273e-02
8.805000000000000000e+03,1.610000038146972656e+01,4.300000190734863281e+00,5.325304641701222863e-09,6.094099802567143342e-08,6.961280703544616699e-01,-1.646836474537849426e-02,-1.921394653618335724e-02
8.806000000000000000e+03,1.620000076293945312e+01,4.300000190734863281e+00,5.358689048051701320e-09,6.170827049345462001e-08,6.961284279823303223e-01,-1.646729372441768646e-02,-1.921270415186882019e-02
8.807000000000000000e+03,1.629999923706054688e+01,4.300000190734863281e+00,5.392072566223760077e-09,6.248028228128532646e-08,6.961289048194885254e-01,-1.646602526307106018e-02,-1.921085454523563385e-02
8.808000000000000000e+03,1.639999961853027344e+01,4.300000190734863281e+00,5.425456972574238534e-09,6.325706891630034079e-08,6.961294412612915039e-01,-1.646453142166137695e-02,-1.920951157808303833e-02
8.809000000000000000e+03,1.650000000000000000e+01,4.300000190734863281e+00,5.458841378924716992e-09,6.403862329307230539e-08,6.961299777030944824e-01,-1.646277867257595062e-02,-1.920748129487037659e-02
8.810000000000000000e+03,1.660000038146972656e+01,4.300000190734863281e+00,5.492225785275195449e-09,6.482493120074650506e-08,6.961306333541870117e-01,-1.646072790026664734e-02,-1.920509897172451019e-02
8.811000000000000000e+03,1.670000076293945312e+01,4.300000190734863281e+00,5.525610191625673906e-09,6.561599263932293979e-08,6.961313486099243164e-01,-1.645833253860473633e-02,-1.920230872929096222e-02
8.812000000000000000e+03,1.679999923706054688e+01,4.300000190734863281e+00,5.558993709797732663e-09,6.641180760880160960e-08,6.961320638656616211e-01,-1.645554229617118835e-02,-1.919866539537906647e-02
8.813000000000000000e+03,1.689999961853027344e+01,4.300000190734863281e+00,5.592378116148211120e-09,6.721239032003722969e-08,6.961328983306884766e-01,-1.645230129361152649e-02,-1.919525489211082458e-02
8.814000000000000000e+03,1.700000000000000000e+01,4.300000190734863281e+00,5.625762522498689577e-09,6.801773366760244244e-08,6.961337327957153320e-01,-1.644854433834552765e-02,-1.919084414839744568e-02
8.815000000000000000e+03,1.710000038146972656e+01,4.300000190734863281e+00,5.659146928849168035e-09,6.882783765149724786e-08,6.961346268653869629e-01,-1.644419692456722260e-02,-1.918573305010795593e-02
8.816000000000000000e+03,1.720000076293945312e+01,4.300000190734863281e+00,5.692530891110436642e-09,6.964270227172164596e-08,6.961355209350585938e-01,-1.643917523324489594e-02,-1.917983032763004303e-02
8.817000000000000000e+03,1.729999923706054688e+01,4.300000190734863281e+00,5.725914853371705249e-09,7.046230621199356392e-08,6.961364150047302246e-01,-1.643338426947593689e-02,-1.917264424264431000e-02
8.818000000000000000e+03,1.739999961853027344e+01,4.300000190734863281e+00,5.759298815632973856e-09,7.128669210487714736e-08,6.961372494697570801e-01,-1.642671599984169006e-02,-1.916522160172462463e-02
8.819000000000000000e+03,1.750000000000000000e+01,4.300000190734863281e+00,5.792683221983452313e-09,7.211583152866296587e-08,6.961379051208496094e-01,-1.641904935240745544e-02,-1.915628463029861450e-02
8.820000000000000000e+03,1.760000038146972656e+01,4.300000190734863281e+00,5.826067184244720920e-09,7.294973158877837704e-08,6.961383819580078125e-01,-1.641024649143218994e-02,-1.914609409868717194e-02
8.821000000000000000e+03,1.770000076293945312e+01,4.300000190734863281e+00,5.859450702416779677e-09,7.378839228522338090e-08,6.961385011672973633e-01,-1.640014909207820892e-02,-1.913451962172985077e-02
8.822000000000000000e+03,1.779999923706054688e+01,4.300000190734863281e+00,5.892833776499628584e-09,7.463179230171590461e-08,6.961380839347839355e-01,-1.638858579099178314e-02,-1.912104710936546326e-02
8.823000000000000000e+03,1.789999961853027344e+01,4.300000190734863281e+00,5.926217294671687341e-09,7.547997427082009381e-08,6.961369514465332031e-01,-1.637535728514194489e-02,-1.910670474171638489e-02
8.824000000000000000e+03,1.800000000000000000e+01,4.300000190734863281e+00,5.959600368754536248e-09,7.633290977082651807e-08,6.961348056793212891e-01,-1.636024750769138336e-02,-1.909023709595203400e-02
8.825000000000000000e+03,1.810000038146972656e+01,4.300000190734863281e+00,5.992982998748175305e-09,7.719060590716253500e-08,6.961312890052795410e-01,-1.634301990270614624e-02,-1.907194778323173523e-02
8.826000000000000000e+03,1.820000076293945312e+01,4.300000190734863281e+00,6.026365184652604512e-09,7.805306267982814461e-08,6.961258649826049805e-01,-1.632342487573623657e-02,-1.905181817710399628e-02
8.827000000000000000e+03,1.829999923706054688e+01,4.300000190734863281e+00,6.059746038289404169e-09,7.892025877254127408e-08,6.961178183555603027e-01,-1.630121283233165741e-02,-1.902952603995800018e-02
8.828000000000000000e+03,1.839999961853027344e+01,4.300000190734863281e+00,6.093126891926203825e-09,7.979223681786606903e-08,6.961062550544738770e-01,-1.627615280449390411e-02,-1.900642365217208862e-02
8.829000000000000000e+03,1.850000000000000000e+01,4.300000190734863281e+00,6.126505969206164082e-09,8.066896839409309905e-08,6.960901021957397461e-01,-1.624808460474014282e-02,-1.898175850510597229e-02
8.830000000000000000e+03,1.860000038146972656e+01,4.300000190734863281e+00,6.159884158307704638e-09,8.155045350122236414e-08,6.960678100585937500e-01,-1.621700264513492584e-02,-1.895661838352680206e-02
8.831000000000000000e+03,1.870000076293945312e+01,4.300000190734863281e+00,6.193260126963195944e-09,8.243670635010857950e-08,6.960374712944030762e-01,-1.618318073451519012e-02,-1.893215999007225037e-02
8.832000000000000000e+03,1.879999923706054688e+01,4.300000190734863281e+00,6.226632986994218300e-09,8.332769141361495713e-08,6.959965825080871582e-01,-1.614743098616600037e-02,-1.890979520976543427e-02
8.833000000000000000e+03,1.889999961853027344e+01,4.300000190734863281e+00,6.260003182489981555e-09,8.422345132430564263e-08,6.959421634674072266e-01,-1.611148007214069366e-02,-1.889338344335556030e-02
8.834000000000000000e+03,1.900000000000000000e+01,4.300000190734863281e+00,6.293369825272066009e-09,8.512396476589856320e-08,6.958708167076110840e-01,-1.607863418757915497e-02,-1.888571493327617645e-02
8.835000000000000000e+03,1.910000038146972656e+01,4.300000190734863281e+00,6.326731583072842113e-09,8.602923173839371884e-08,6.957786679267883301e-01,-1.605476811528205872e-02,-1.889267377555370331e-02
8.836000000000000000e+03,1.920000076293945312e+01,4.300000190734863281e+00,6.360087567713890166e-09,8.693924513636375195e-08,6.956623792648315430e-01,-1.604978367686271667e-02,-1.892147026956081390e-02
8.837000000000000000e+03,1.929999923706054688e+01,4.300000190734863281e+00,6.393436891016790469e-09,8.785399074895394733e-08,6.955206394195556641e-01,-1.607942208647727966e-02,-1.898020878434181213e-02
8.838000000000000000e+03,1.939999961853027344e+01,4.300000190734863281e+00,6.426780441159962720e-09,8.877350410330109298e-08,6.953565478324890137e-01,-1.616680063307285309e-02,-1.907794363796710968e-02
8.839000000000000000e+03,1.950000000000000000e+01,4.300000190734863281e+00,6.460117774054197071e-09,8.969774967226840090e-08,6.951820850372314453e-01,-1.634164527058601379e-02,-1.921621337532997131e-02
8.840000000000000000e+03,1.960000038146972656e+01,4.300000190734863281e+00,6.493451554234752621e-09,9.062674166671058629e-08,6.950208544731140137e-01,-1.663404516875743866e-02,-1.938505098223686218e-02
8.841000000000000000e+03,1.970000076293945312e+01,4.300000190734863281e+00,6.526786222593727871e-09,9.156048008662764914e-08,6.949062347412109375e-01,-1.705959439277648926e-02,-1.955212838947772980e-02
8.842000000000000000e+03,1.979999923706054688e+01,4.300000190734863281e+00,6.560126220023221322e-09,9.249894361573751667e-08,6.948675513267517090e-01,-1.759953238070011139e-02,-1.966080069541931152e-02
8.843000000000000000e+03,1.989999961853027344e+01,4.300000190734863281e+00,6.593476875593751174e-09,9.344219620288640726e-08,6.949078440666198730e-01,-1.818761788308620453e-02,-1.964597776532173157e-02
8.844000000000000000e+03,2.000000000000000000e+01,4.300000190734863281e+00,6.626839077483737128e-09,9.439022363721960573e-08,6.949859857559204102e-01,-1.872166432440280914e-02,-1.946235075592994690e-02
8.845000000000000000e+03,0.000000000000000000e+00,4.400000095367431641e+00,1.757154005444711392e-38,-5.575972580422702873e-39,6.739407777786254883e-01,2.021822333335876465e-01,-2.968786656856536865e-01
8.846000000000000000e+03,1.000000014901161194e-01,4.400000095367431641e+00,2.920410094309211502e-11,-3.675640694589255020e-11,6.752296686172485352e-01,2.064785212278366089e-01,-3.215935528278350830e-01
8.847000000000000000e+03,2.000000029802322388e-01,4.400000095367431641e+00,5.830892713110102932e-11,-6.838918320539733031e-11,6.707526445388793945e-01,1.985045522451400757e-01,-3.056280910968780518e-01
8.848000000000000000e+03,3.000000119209289551e-01,4.400000095367431641e+00,8.751719487998244063e-11,-9.474274142995398051e-11,6.684167981147766113e-01,1.834772676229476929e-01,-2.888028323650360107e-01
8.849000000000000000e+03,4.000000059604644775e-01,4.400000095367431641e+00,1.168997260103665781e-10,-1.154474293940666030e-10,6.664214730262756348e-01,1.646277457475662231e-01,-2.695157825946807861e-01
8.850000000000000000e+03,5.000000000000000000e-01,4.400000095367431641e+00,1.464096760495081639e-10,-1.300949070692780651e-10,6.631028652191162109e-01,1.446461677551269531e-01,-2.478536516427993774e-01
8.851000000000000000e+03,6.000000238418579102e-01,4.400000095367431641e+00,1.759376533350121008e-10,-1.383494291351539118e-10,6.576670408248901367e-01,1.252651214599609375e-01,-2.248282134532928467e-01
8.852000000000000000e+03,6.999999880790710449e-01,4.400000095367431641e+00,2.053662517820242783e-10,-1.399856064399074285e-10,6.502138376235961914e-01,1.073766872286796570e-01,-2.016070783138275146e-01
8.853000000000000000e+03,8.000000119209289551e-01,4.400000095367431641e+00,2.346006444664539003e-10,-1.348801487166539914e-10,6.413162946701049805e-01,9.131373465061187744e-02,-1.791083663702011108e-01
8.854000000000000000e+03,8.999999761581420898e-01,4.400000095367431641e+00,2.635781870541364924e-10,-1.229880364217450506e-10,6.316587328910827637e-01,7.710093259811401367e-02,-1.579128801822662354e-01
8.855000000000000000e+03,1.000000000000000000e+00,4.400000095367431641e+00,2.922661002102699968e-10,-1.043190603344790190e-10,6.218309402465820312e-01,6.461618840694427490e-02,-1.383258104324340820e-01
8.856000000000000000e+03,1.100000023841857910e+00,4.400000095367431641e+00,3.206550858170231777e-10,-7.891972492179988308e-11,6.122730970382690430e-01,5.368132516741752625e-02,-1.204665005207061768e-01
8.857000000000000000e+03,1.200000047683715820e+00,4.400000095367431641e+00,3.487527766576903332e-10,-4.686038709844631001e-11,6.032834649085998535e-01,4.410864785313606262e-02,-1.043399050831794739e-01
8.858000000000000000e+03,1.299999952316284180e+00,4.400000095367431641e+00,3.765779355013876284e-10,-8.226452505311065977e-12,5.950458645820617676e-01,3.572218120098114014e-02,-8.988530933856964111e-02
8.859000000000000000e+03,1.399999976158142090e+00,4.400000095367431641e+00,4.041564860557400607e-10,3.688796143541672734e-11,5.876591801643371582e-01,2.836560830473899841e-02,-7.700722664594650269e-02
8.860000000000000000e+03,1.500000000000000000e+00,4.400000095367431641e+00,4.315179602532026593e-10,8.838386966747435736e-11,5.811616778373718262e-01,2.190385945141315460e-02,-6.559383869171142578e-02
8.861000000000000000e+03,1.600000023841857910e+00,4.400000095367431641e+00,4.586933888273136972e-10,1.461605558805700866e-10,5.755503773689270020e-01,1.622168719768524170e-02,-5.552817881107330322e-02
8.862000000000000000e+03,1.700000047683715820e+00,4.400000095367431641e+00,4.857138025116114477e-10,2.101175206048466748e-10,5.707945823669433594e-01,1.122122909873723984e-02,-4.669427499175071716e-02
8.863000000000000000e+03,1.799999952316284180e+00,4.400000095367431641e+00,5.126090107943070961e-10,2.801558152132344048e-10,5.668461918830871582e-01,6.819369271397590637e-03,-3.898052126169204712e-02
8.864000000000000000e+03,1.899999976158142090e+00,4.400000095367431641e+00,5.394072410958017372e-10,3.561793915363153928e-10,5.636467337608337402e-01,2.945254789665341377e-03,-3.228157386183738708e-02
8.865000000000000000e+03,2.000000000000000000e+00,4.400000095367431641e+00,5.661344726348715994e-10,4.380952822735650898e-10,5.611324906349182129e-01,-4.618196398951113224e-04,-2.649882063269615173e-02
8.866000000000000000e+03,2.099999904632568359e+00,4.400000095367431641e+00,5.928141311173362737e-10,5.258143920272573268e-10,5.592377185821533203e-01,-3.454220248386263847e-03,-2.154084667563438416e-02
8.867000000000000000e+03,2.200000047683715820e+00,4.400000095367431641e+00,6.194675328252685631e-10,6.192522050696425140e-10,5.578971505165100098e-01,-6.077455822378396988e-03,-1.732331886887550354e-02
8.868000000000000000e+03,2.299999952316284180e+00,4.400000095367431641e+00,6.461131629720284764e-10,7.183276196087717835e-10,5.570476055145263672e-01,-8.371330797672271729e-03,-1.376834325492382050e-02
8.869000000000000000e+03,2.400000095367431641e+00,4.400000095367431641e+00,6.727675083695316971e-10,8.229651959901218561e-10,5.566290616989135742e-01,-1.037094276398420334e-02,-1.080478355288505554e-02
8.870000000000000000e+03,2.500000000000000000e+00,4.400000095367431641e+00,6.994445023167372710e-10,9.330927142059408652e-10,5.565850734710693359e-01,-1.210740488022565842e-02,-8.367065340280532837e-03
8.871000000000000000e+03,2.599999904632568359e+00,4.400000095367431641e+00,7.261561907334623811e-10,1.048643394341297608e-09,5.568633675575256348e-01,-1.360848266631364822e-02,-6.395585369318723679e-03
8.872000000000000000e+03,2.700000047683715820e+00,4.400000095367431641e+00,7.529126766492311162e-10,1.169554786351056919e-09,5.574158430099487305e-01,-1.489907223731279373e-02,-4.835796542465686798e-03
8.873000000000000000e+03,2.799999952316284180e+00,4.400000095367431641e+00,7.797221202032744714e-10,1.295767826370308740e-09,5.581986308097839355e-01,-1.600157096982002258e-02,-3.637865185737609863e-03
8.874000000000000000e+03,2.900000095367431641e+00,4.400000095367431641e+00,8.065913492671938911e-10,1.427228890626963675e-09,5.591720342636108398e-01,-1.693622581660747528e-02,-2.756842644885182381e-03
8.875000000000000000e+03,3.000000000000000000e+00,4.400000095367431641e+00,8.335254708669026513e-10,1.563887241928796357e-09,5.603002905845642090e-01,-1.772135309875011444e-02,-2.151564927771687508e-03
8.876000000000000000e+03,3.099999904632568359e+00,4.400000095367431641e+00,8.605284818052894025e-10,1.705696583975679914e-09,5.615515112876892090e-01,-1.837357133626937866e-02,-1.785129192285239697e-03
8.877000000000000000e+03,3.200000047683715820e+00,4.400000095367431641e+00,8.876032686622181700e-10,1.852614839314981054e-09,5.628972649574279785e-01,-1.890796795487403870e-02,-1.624088617973029613e-03
8.878000000000000000e+03,3.299999952316284180e+00,4.400000095367431641e+00,9.147514967722258916e-10,2.004601817873208347e-09,5.643125772476196289e-01,-1.933823339641094208e-02,-1.638187095522880554e-03
8.879000000000000000e+03,3.400000095367431641e+00,4.400000095367431641e+00,9.419743873806396550e-10,2.161622658647388562e-09,5.657753944396972656e-01,-1.967680454254150391e-02,-1.800617901608347893e-03
8.880000000000000000e+03,3.500000000000000000e+00,4.400000095367431641e+00,9.692717739540057664e-10,2.323643499835270632e-09,5.672667026519775391e-01,-1.993495412170886993e-02,-2.087013795971870422e-03
8.881000000000000000e+03,3.599999904632568359e+00,4.400000095367431641e+00,9.966435454700217633e-10,2.490635253593609377e-09,5.687698125839233398e-01,-2.012290060520172119e-02,-2.475989283993840218e-03
8.882000000000000000e+03,3.700000047683715820e+00,4.400000095367431641e+00,1.024088591705663021e-09,2.662570830480603945e-09,5.702705979347229004e-01,-2.024988085031509399e-02,-2.948415931314229965e-03
8.883000000000000000e+03,3.799999952316284180e+00,4.400000095367431641e+00,1.051605469370997525e-09,2.839425361500502731e-09,5.717570781707763672e-01,-2.032423391938209534e-02,-3.487222827970981598e-03
8.884000000000000000e+03,3.900000095367431641e+00,4.400000095367431641e+00,1.079192402109185878e-09,3.021177086282023083e-09,5.732190012931823730e-01,-2.035346813499927521e-02,-4.077711608260869980e-03
8.885000000000000000e+03,4.000000000000000000e+00,4.400000095367431641e+00,1.106847169474178827e-09,3.207805354676906973e-09,5.746480226516723633e-01,-2.034432440996170044e-02,-4.706622101366519928e-03
8.886000000000000000e+03,4.099999904632568359e+00,4.400000095367431641e+00,1.134567551019927123e-09,3.399293069250575172e-09,5.760372281074523926e-01,-2.030284143984317780e-02,-5.362719297409057617e-03
8.887000000000000000e+03,4.199999809265136719e+00,4.400000095367431641e+00,1.162350882211171665e-09,3.595623798702263230e-09,5.773811936378479004e-01,-2.023440785706043243e-02,-6.036089267581701279e-03
8.888000000000000000e+03,4.300000190734863281e+00,4.400000095367431641e+00,1.190194720557258279e-09,3.796784220355675643e-09,5.786756277084350586e-01,-2.014381811022758484e-02,-6.718327756971120834e-03
8.889000000000000000e+03,4.400000095367431641e+00,4.400000095367431641e+00,1.218096068456020475e-09,4.002760345400702136e-09,5.799173116683959961e-01,-2.003531530499458313e-02,-7.401895709335803986e-03
8.890000000000000000e+03,4.500000000000000000e+00,4.400000095367431641e+00,1.246052150349896692e-09,4.213541515696306305e-09,5.811039209365844727e-01,-1.991264522075653076e-02,-8.080920204520225525e-03
8.891000000000000000e+03,4.599999904632568359e+00,4.400000095367431641e+00,1.274060079659022904e-09,4.429117517190661601e-09,5.822339653968811035e-01,-1.977910101413726807e-02,-8.750157430768013000e-03
8.892000000000000000e+03,4.699999809265136719e+00,4.400000095367431641e+00,1.302117080825837547e-09,4.649480356277990722e-09,5.833066701889038086e-01,-1.963755302131175995e-02,-9.405335411429405212e-03
8.893000000000000000e+03,4.800000190734863281e+00,4.400000095367431641e+00,1.330220489315081522e-09,4.874623371620145917e-09,5.843219161033630371e-01,-1.949050091207027435e-02,-1.004306040704250336e-02
8.894000000000000000e+03,4.900000095367431641e+00,4.400000095367431641e+00,1.358367196502285879e-09,5.104538125522140035e-09,5.852800011634826660e-01,-1.934010162949562073e-02,-1.066026557236909866e-02
8.895000000000000000e+03,5.000000000000000000e+00,4.400000095367431641e+00,1.386554759896796440e-09,5.339219288913454875e-09,5.861817002296447754e-01,-1.918820664286613464e-02,-1.125504542142152786e-02
8.896000000000000000e+03,5.099999904632568359e+00,4.400000095367431641e+00,1.414780403941051645e-09,5.578662420901991936e-09,5.870281457901000977e-01,-1.903638802468776703e-02,-1.182567421346902847e-02
8.897000000000000000e+03,5.199999809265136719e+00,4.400000095367431641e+00,1.443041575122094855e-09,5.822863524684862568e-09,5.878206491470336914e-01,-1.888597197830677032e-02,-1.237097475677728653e-02
8.898000000000000000e+03,5.300000190734863281e+00,4.400000095367431641e+00,1.471336164016179282e-09,6.071820379816017521e-09,5.885609984397888184e-01,-1.873806491494178772e-02,-1.289026811718940735e-02
8.899000000000000000e+03,5.400000095367431641e+00,4.400000095367431641e+00,1.499661284043440901e-09,6.325527213135728744e-09,5.892509222030639648e-01,-1.859357766807079315e-02,-1.338285766541957855e-02
8.900000000000000000e+03,5.500000000000000000e+00,4.400000095367431641e+00,1.528015047824737849e-09,6.583983136465576536e-09,5.898925065994262695e-01,-1.845324411988258362e-02,-1.384889241307973862e-02
8.901000000000000000e+03,5.599999904632568359e+00,4.400000095367431641e+00,1.556395123891718413e-09,6.847186373448721497e-09,5.904877185821533203e-01,-1.831764914095401764e-02,-1.428841333836317062e-02
8.902000000000000000e+03,5.699999809265136719e+00,4.400000095367431641e+00,1.584799624865240730e-09,7.115135591817534078e-09,5.910387039184570312e-01,-1.818724162876605988e-02,-1.470176130533218384e-02
8.903000000000000000e+03,5.800000190734863281e+00,4.400000095367431641e+00,1.613226663366162938e-09,7.387830347482804427e-09,5.915477871894836426e-01,-1.806235313415527344e-02,-1.508953981101512909e-02
8.904000000000000000e+03,5.900000095367431641e+00,4.400000095367431641e+00,1.641674240993040712e-09,7.665267531820063596e-09,5.920170545578002930e-01,-1.794321462512016296e-02,-1.545213442295789719e-02
8.905000000000000000e+03,6.000000000000000000e+00,4.400000095367431641e+00,1.670140803433639576e-09,7.947447144829311583e-09,5.924487113952636719e-01,-1.782996766269207001e-02,-1.579059101641178131e-02
8.906000000000000000e+03,6.099999904632568359e+00,4.400000095367431641e+00,1.698624685353422592e-09,8.234369630599758239e-09,5.928450226783752441e-01,-1.772268116474151611e-02,-1.610568538308143616e-02
8.907000000000000000e+03,6.199999809265136719e+00,4.400000095367431641e+00,1.727124443462457748e-09,8.526034989131403563e-09,5.932080745697021484e-01,-1.762135885655879974e-02,-1.639834791421890259e-02
8.908000000000000000e+03,6.300000190734863281e+00,4.400000095367431641e+00,1.755638634470813031e-09,8.822444108602667256e-09,5.935399532318115234e-01,-1.752595044672489166e-02,-1.666965149343013763e-02
8.909000000000000000e+03,6.400000095367431641e+00,4.400000095367431641e+00,1.784165926110858891e-09,9.123594324478290218e-09,5.938426256179809570e-01,-1.743636280298233032e-02,-1.692033559083938599e-02
8.910000000000000000e+03,6.500000000000000000e+00,4.400000095367431641e+00,1.812705208159570702e-09,9.429486524936692149e-09,5.941181778907775879e-01,-1.735246367752552032e-02,-1.715170405805110931e-02
8.911000000000000000e+03,6.599999904632568359e+00,4.400000095367431641e+00,1.841255148349318915e-09,9.740122486334712448e-09,5.943684577941894531e-01,-1.727409474551677704e-02,-1.736471056938171387e-02
8.912000000000000000e+03,6.699999809265136719e+00,4.400000095367431641e+00,1.869814969523986292e-09,1.005550220867235112e-08,5.945952534675598145e-01,-1.720106787979602814e-02,-1.756039075553417206e-02
8.913000000000000000e+03,6.800000190734863281e+00,4.400000095367431641e+00,1.898383672482850670e-09,1.037562835648486725e-08,5.948002338409423828e-01,-1.713318191468715668e-02,-1.773985661566257477e-02
8.914000000000000000e+03,6.900000095367431641e+00,4.400000095367431641e+00,1.926960147002887425e-09,1.070049648888016236e-08,5.949851870536804199e-01,-1.707022078335285187e-02,-1.790384016931056976e-02
8.915000000000000000e+03,7.000000000000000000e+00,4.400000095367431641e+00,1.955543726950281780e-09,1.103011015857191524e-08,5.951515436172485352e-01,-1.701196096837520599e-02,-1.805359311401844025e-02
8.916000000000000000e+03,7.099999904632568359e+00,4.400000095367431641e+00,1.984133524146614036e-09,1.136446936556012588e-08,5.953007936477661133e-01,-1.695816963911056519e-02,-1.818997971713542938e-02
8.917000000000000000e+03,7.199999809265136719e+00,4.400000095367431641e+00,2.012729094502674343e-09,1.170357588620163369e-08,5.954344272613525391e-01,-1.690861210227012634e-02,-1.831391640007495880e-02
8.918000000000000000e+03,7.300000190734863281e+00,4.400000095367431641e+00,2.041329771884647926e-09,1.204743060867485838e-08,5.955535769462585449e-01,-1.686305738985538483e-02,-1.842636987566947937e-02
8.919000000000000000e+03,7.400000095367431641e+00,4.400000095367431641e+00,2.069934890158720009e-09,1.239603175662296053e-08,5.956596732139587402e-01,-1.682126894593238831e-02,-1.852791570127010345e-02
8.920000000000000000e+03,7.500000000000000000e+00,4.400000095367431641e+00,2.098543783191075818e-09,1.274938021822435985e-08,5.957536697387695312e-01,-1.678301952779293060e-02,-1.861962489783763885e-02
8.921000000000000000e+03,7.599999904632568359e+00,4.400000095367431641e+00,2.127156228937110427e-09,1.310747865801431544e-08,5.958367586135864258e-01,-1.674808561801910400e-02,-1.870217546820640564e-02
8.922000000000000000e+03,7.699999809265136719e+00,4.400000095367431641e+00,2.155771561263009062e-09,1.347032707599282730e-08,5.959098935127258301e-01,-1.671625114977359772e-02,-1.877628825604915619e-02
8.923000000000000000e+03,7.800000190734863281e+00,4.400000095367431641e+00,2.184389780168771722e-09,1.383792636033831513e-08,5.959740281105041504e-01,-1.668730378150939941e-02,-1.884273625910282135e-02
8.924000000000000000e+03,7.900000095367431641e+00,4.400000095367431641e+00,2.213010219520583632e-09,1.421027562287235924e-08,5.960299968719482422e-01,-1.666104048490524292e-02,-1.890188828110694885e-02
8.925000000000000000e+03,8.000000000000000000e+00,4.400000095367431641e+00,2.241632435229234943e-09,1.458737575177337931e-08,5.960785746574401855e-01,-1.663726940751075745e-02,-1.895461790263652802e-02
8.926000000000000000e+03,8.100000381469726562e+00,4.400000095367431641e+00,2.270256649339330579e-09,1.496922941157663445e-08,5.961205363273620605e-01,-1.661580428481101990e-02,-1.900149509310722351e-02
8.927000000000000000e+03,8.199999809265136719e+00,4.400000095367431641e+00,2.298881973672450840e-09,1.535583216139002616e-08,5.961565375328063965e-01,-1.659647002816200256e-02,-1.904268004000186920e-02
8.928000000000000000e+03,8.300000190734863281e+00,4.400000095367431641e+00,2.327508852317805577e-09,1.574719199481933174e-08,5.961872339248657227e-01,-1.657909899950027466e-02,-1.907930150628089905e-02
8.929000000000000000e+03,8.399999618530273438e+00,4.400000095367431641e+00,2.356136397096975088e-09,1.614330180643719359e-08,5.962131023406982422e-01,-1.656353287398815155e-02,-1.911108754575252533e-02
8.930000000000000000e+03,8.500000000000000000e+00,4.400000095367431641e+00,2.384765052099169225e-09,1.654416692531412991e-08,5.962347388267517090e-01,-1.654962450265884399e-02,-1.913919299840927124e-02
8.931000000000000000e+03,8.600000381469726562e+00,4.400000095367431641e+00,2.413394373235178136e-09,1.694978912780698010e-08,5.962526202201843262e-01,-1.653723418712615967e-02,-1.916346140205860138e-02
8.932000000000000000e+03,8.699999809265136719e+00,4.400000095367431641e+00,2.442023916415791973e-09,1.736015953213154717e-08,5.962671637535095215e-01,-1.652622967958450317e-02,-1.918425597250461578e-02
8.933000000000000000e+03,8.800000190734863281e+00,4.400000095367431641e+00,2.470654347774825510e-09,1.777529057278570690e-08,5.962787866592407227e-01,-1.651648990809917450e-02,-1.920245587825775146e-02
8.934000000000000000e+03,8.899999618530273438e+00,4.400000095367431641e+00,2.499284557089254122e-09,1.819517336798526230e-08,5.962877869606018066e-01,-1.650790125131607056e-02,-1.921764202415943146e-02
8.935000000000000000e+03,9.000000000000000000e+00,4.400000095367431641e+00,2.527915432537497509e-09,1.861981502315757098e-08,5.962945222854614258e-01,-1.650035753846168518e-02,-1.923082210123538971e-02
8.936000000000000000e+03,9.100000381469726562e+00,4.400000095367431641e+00,2.556546307985740896e-09,1.904921198558895412e-08,5.962993502616882324e-01,-1.649375818669795990e-02,-1.924170926213264465e-02
8.937000000000000000e+03,9.199999809265136719e+00,4.400000095367431641e+00,2.585177183433984283e-09,1.948336247892257234e-08,5.963023900985717773e-01,-1.648801565170288086e-02,-1.925053820013999939e-02
8.938000000000000000e+03,9.300000190734863281e+00,4.400000095367431641e+00,2.613808058882227670e-09,1.992227183222894382e-08,5.963040590286254883e-01,-1.648304238915443420e-02,-1.925807073712348938e-02
8.939000000000000000e+03,9.399999618530273438e+00,4.400000095367431641e+00,2.642438712285866131e-09,2.036593471643755038e-08,5.963044166564941406e-01,-1.647876203060150146e-02,-1.926377415657043457e-02
8.940000000000000000e+03,9.500000000000000000e+00,4.400000095367431641e+00,2.671069587734109518e-09,2.081436001333258901e-08,5.963037014007568359e-01,-1.647510379552841187e-02,-1.926855742931365967e-02
8.941000000000000000e+03,9.600000381469726562e+00,4.400000095367431641e+00,2.699700463182352905e-09,2.126754061748670210e-08,5.963021516799926758e-01,-1.647200062870979309e-02,-1.927202939987182617e-02
8.942000000000000000e+03,9.699999809265136719e+00,4.400000095367431641e+00,2.728330894541386442e-09,2.172547475254305027e-08,5.962998270988464355e-01,-1.646939478814601898e-02,-1.927433907985687256e-02
8.943000000000000000e+03,9.800000190734863281e+00,4.400000095367431641e+00,2.756961325900419979e-09,2.218817130028583051e-08,5.962969064712524414e-01,-1.646722853183746338e-02,-1.927616633474826813e-02
8.944000000000000000e+03,9.899999618530273438e+00,4.400000095367431641e+00,2.785591313170243666e-09,2.265562137893084582e-08,5.962935090065002441e-01,-1.646545343101024628e-02,-1.927689462900161743e-02
8.945000000000000000e+03,1.000000000000000000e+01,4.400000095367431641e+00,2.814221300440067353e-09,2.312783387026229320e-08,5.962896943092346191e-01,-1.646402291953563690e-02,-1.927736401557922363e-02
8.946000000000000000e+03,1.010000038146972656e+01,4.400000095367431641e+00,2.842851065665286114e-09,2.360480344520965446e-08,5.962856411933898926e-01,-1.646289601922035217e-02,-1.927712187170982361e-02
8.947000000000000000e+03,1.019999980926513672e+01,4.400000095367431641e+00,2.871480386801295026e-09,2.408652655105925078e-08,5.962813496589660645e-01,-1.646203547716140747e-02,-1.927623711526393890e-02
8.948000000000000000e+03,1.030000019073486328e+01,4.400000095367431641e+00,2.900109929981908863e-09,2.457301384595211857e-08,5.962768793106079102e-01,-1.646140590310096741e-02,-1.927536725997924805e-02
8.949000000000000000e+03,1.039999961853027344e+01,4.400000095367431641e+00,2.928738807028707924e-09,2.506425467174722144e-08,5.962724089622497559e-01,-1.646097935736179352e-02,-1.927380636334419250e-02
8.950000000000000000e+03,1.050000000000000000e+01,4.400000095367431641e+00,2.957367684075506986e-09,2.556025791022875637e-08,5.962678194046020508e-01,-1.646072417497634888e-02,-1.927238330245018005e-02
8.951000000000000000e+03,1.060000038146972656e+01,4.400000095367431641e+00,2.985996561122306048e-09,2.606102000868304458e-08,5.962632894515991211e-01,-1.646061800420284271e-02,-1.927057467401027679e-02
8.952000000000000000e+03,1.069999980926513672e+01,4.400000095367431641e+00,3.014624772035290334e-09,2.656653563803956786e-08,5.962588191032409668e-01,-1.646064035594463348e-02,-1.926842518150806427e-02
8.953000000000000000e+03,1.080000019073486328e+01,4.400000095367431641e+00,3.043253204992879546e-09,2.707681368008252321e-08,5.962544083595275879e-01,-1.646076701581478119e-02,-1.926655136048793793e-02
8.954000000000000000e+03,1.089999961853027344e+01,4.400000095367431641e+00,3.071880971816653982e-09,2.759184702938455303e-08,5.962500572204589844e-01,-1.646098494529724121e-02,-1.926421560347080231e-02
8.955000000000000000e+03,1.100000000000000000e+01,4.400000095367431641e+00,3.100508960685033344e-09,2.811164456772985432e-08,5.962458848953247070e-01,-1.646127551794052124e-02,-1.926222071051597595e-02
8.956000000000000000e+03,1.110000038146972656e+01,4.400000095367431641e+00,3.129136727508807780e-09,2.863619918969106948e-08,5.962418317794799805e-01,-1.646162569522857666e-02,-1.926001347601413727e-02
8.957000000000000000e+03,1.119999980926513672e+01,4.400000095367431641e+00,3.157764050243372367e-09,2.916550911891135911e-08,5.962378978729248047e-01,-1.646202243864536285e-02,-1.925761625170707703e-02
8.958000000000000000e+03,1.130000019073486328e+01,4.400000095367431641e+00,3.186391372977936953e-09,2.969958323717492021e-08,5.962342023849487305e-01,-1.646245829761028290e-02,-1.925562135875225067e-02
8.959000000000000000e+03,1.139999961853027344e+01,4.400000095367431641e+00,3.215018251623291690e-09,3.023841088634071639e-08,5.962306261062622070e-01,-1.646292023360729218e-02,-1.925328001379966736e-02
8.960000000000000000e+03,1.150000000000000000e+01,4.400000095367431641e+00,3.243645352313251351e-09,3.078200094819294463e-08,5.962272286415100098e-01,-1.646340079605579376e-02,-1.925136893987655640e-02
8.961000000000000000e+03,1.160000038146972656e+01,4.400000095367431641e+00,3.272272230958606087e-09,3.133035164637476555e-08,5.962240099906921387e-01,-1.646389439702033997e-02,-1.924932561814785004e-02
8.962000000000000000e+03,1.169999980926513672e+01,4.400000095367431641e+00,3.300898887559355899e-09,3.188345587545882154e-08,5.962209105491638184e-01,-1.646439358592033386e-02,-1.924715563654899597e-02
8.963000000000000000e+03,1.180000019073486328e+01,4.400000095367431641e+00,3.329525544160105710e-09,3.244132429358614900e-08,5.962180495262145996e-01,-1.646489463746547699e-02,-1.924544200301170349e-02
8.964000000000000000e+03,1.189999961853027344e+01,4.400000095367431641e+00,3.358151756671645671e-09,3.300394624261571153e-08,5.962153077125549316e-01,-1.646539382636547089e-02,-1.924342289566993713e-02
8.965000000000000000e+03,1.200000000000000000e+01,4.400000095367431641e+00,3.386778191227790558e-09,3.357133238068854553e-08,5.962128043174743652e-01,-1.646588370203971863e-02,-1.924186944961547852e-02
8.966000000000000000e+03,1.210000038146972656e+01,4.400000095367431641e+00,3.415404403739330519e-09,3.414347915509097220e-08,5.962104201316833496e-01,-1.646636612713336945e-02,-1.924020610749721527e-02
8.967000000000000000e+03,1.219999980926513672e+01,4.400000095367431641e+00,3.444030394206265555e-09,3.472037590768195514e-08,5.962081551551818848e-01,-1.646683365106582642e-02,-1.923843473196029663e-02
8.968000000000000000e+03,1.230000019073486328e+01,4.400000095367431641e+00,3.472656606717805516e-09,3.530204040202988836e-08,5.962060689926147461e-01,-1.646728813648223877e-02,-1.923713274300098419e-02
8.969000000000000000e+03,1.239999961853027344e+01,4.400000095367431641e+00,3.501282375140135628e-09,3.588845842728005664e-08,5.962041616439819336e-01,-1.646772772073745728e-02,-1.923553086817264557e-02
8.970000000000000000e+03,1.250000000000000000e+01,4.400000095367431641e+00,3.529908143562465739e-09,3.647964064157349640e-08,5.962023735046386719e-01,-1.646814867854118347e-02,-1.923439651727676392e-02
8.971000000000000000e+03,1.260000038146972656e+01,4.400000095367431641e+00,3.558534134029400775e-09,3.707558349219652882e-08,5.962007045745849609e-01,-1.646855287253856659e-02,-1.923315227031707764e-02
8.972000000000000000e+03,1.269999980926513672e+01,4.400000095367431641e+00,3.587159680407125961e-09,3.767627632100811752e-08,5.961991548538208008e-01,-1.646893844008445740e-02,-1.923179253935813904e-02
8.973000000000000000e+03,1.280000019073486328e+01,4.400000095367431641e+00,3.615785448829456072e-09,3.828173689157665649e-08,5.961977839469909668e-01,-1.646930538117885590e-02,-1.923089660704135895e-02
8.974000000000000000e+03,1.289999961853027344e+01,4.400000095367431641e+00,3.644410773162576334e-09,3.889195099304743053e-08,5.961964726448059082e-01,-1.646965183317661285e-02,-1.922968961298465729e-02
8.975000000000000000e+03,1.300000000000000000e+01,4.400000095367431641e+00,3.673036541584906445e-09,3.950692573084779724e-08,5.961952805519104004e-01,-1.646998152136802673e-02,-1.922893896698951721e-02
8.976000000000000000e+03,1.310000038146972656e+01,4.400000095367431641e+00,3.701662087962631631e-09,4.012666465769143542e-08,5.961941480636596680e-01,-1.647029072046279907e-02,-1.922806352376937866e-02
8.977000000000000000e+03,1.319999980926513672e+01,4.400000095367431641e+00,3.730287190251146967e-09,4.075115356272362988e-08,5.961931347846984863e-01,-1.647058315575122833e-02,-1.922706328332424164e-02
8.978000000000000000e+03,1.330000019073486328e+01,4.400000095367431641e+00,3.758912736628872153e-09,4.138041020951277460e-08,5.961922407150268555e-01,-1.647085510194301605e-02,-1.922650821506977081e-02
8.979000000000000000e+03,1.339999961853027344e+01,4.400000095367431641e+00,3.787538283006597339e-09,4.201441683449047559e-08,5.961914062500000000e-01,-1.647111214697360992e-02,-1.922562718391418457e-02
8.980000000000000000e+03,1.350000000000000000e+01,4.400000095367431641e+00,3.816163385295112676e-09,4.265319120122512686e-08,5.961906313896179199e-01,-1.647135056555271149e-02,-1.922518573701381683e-02
8.981000000000000000e+03,1.360000038146972656e+01,4.400000095367431641e+00,3.844788931672837862e-09,4.329672620428937080e-08,5.961899757385253906e-01,-1.647157222032546997e-02,-1.922460459172725677e-02
8.982000000000000000e+03,1.369999980926513672e+01,4.400000095367431641e+00,3.873414033961353198e-09,4.394501118554217101e-08,5.961893200874328613e-01,-1.647177711129188538e-02,-1.922388002276420593e-02
8.983000000000000000e+03,1.380000019073486328e+01,4.400000095367431641e+00,3.902039580339078384e-09,4.459806035583824269e-08,5.961887836456298828e-01,-1.647196523845195770e-02,-1.922358386218547821e-02
8.984000000000000000e+03,1.389999961853027344e+01,4.400000095367431641e+00,3.930664682627593720e-09,4.525586660975022824e-08,5.961882472038269043e-01,-1.647213846445083618e-02,-1.922294683754444122e-02
8.985000000000000000e+03,1.400000000000000000e+01,4.400000095367431641e+00,3.959289784916109056e-09,4.591843349999180646e-08,5.961878299713134766e-01,-1.647229678928852081e-02,-1.922273077070713043e-02
8.986000000000000000e+03,1.410000038146972656e+01,4.400000095367431641e+00,3.987915331293834242e-09,4.658576457927665615e-08,5.961874127388000488e-01,-1.647244021296501160e-02,-1.922236010432243347e-02
8.987000000000000000e+03,1.419999980926513672e+01,4.400000095367431641e+00,4.016539989493139728e-09,4.725784563675006211e-08,5.961870551109313965e-01,-1.647256687283515930e-02,-1.922182738780975342e-02
8.988000000000000000e+03,1.430000019073486328e+01,4.400000095367431641e+00,4.045165535870864915e-09,4.793469088326673955e-08,5.961867570877075195e-01,-1.647267863154411316e-02,-1.922170631587505341e-02
8.989000000000000000e+03,1.439999961853027344e+01,4.400000095367431641e+00,4.073790638159380251e-09,4.861628966068565205e-08,5.961864590644836426e-01,-1.647277362644672394e-02,-1.922122575342655182e-02
8.990000000000000000e+03,1.450000000000000000e+01,4.400000095367431641e+00,4.102415740447895587e-09,4.930265617986151483e-08,5.961862802505493164e-01,-1.647285372018814087e-02,-1.922114938497543335e-02
8.991000000000000000e+03,1.460000038146972656e+01,4.400000095367431641e+00,4.131040842736410923e-09,4.999377978265329148e-08,5.961860418319702148e-01,-1.647291518747806549e-02,-1.922089792788028717e-02
8.992000000000000000e+03,1.469999980926513672e+01,4.400000095367431641e+00,4.159665945024926259e-09,5.068965691634730319e-08,5.961859226226806641e-01,-1.647295802831649780e-02,-1.922046393156051636e-02
8.993000000000000000e+03,1.480000019073486328e+01,4.400000095367431641e+00,4.188291047313441595e-09,5.139029823908458638e-08,5.961858034133911133e-01,-1.647298038005828857e-02,-1.922042295336723328e-02
8.994000000000000000e+03,1.489999961853027344e+01,4.400000095367431641e+00,4.216916149601956931e-09,5.209569309272410464e-08,5.961856842041015625e-01,-1.647298038005828857e-02,-1.921999827027320862e-02
8.995000000000000000e+03,1.500000000000000000e+01,4.400000095367431641e+00,4.245541251890472267e-09,5.280585568812057318e-08,5.961856245994567871e-01,-1.647295430302619934e-02,-1.921995542943477631e-02
8.996000000000000000e+03,1.510000038146972656e+01,4.400000095367431641e+00,4.274166354178987604e-09,5.352077536713295558e-08,5.961856245994567871e-01,-1.647290214896202087e-02,-1.921970769762992859e-02
8.997000000000000000e+03,1.519999980926513672e+01,4.400000095367431641e+00,4.302791456467502940e-09,5.424044502433389425e-08,5.961856245994567871e-01,-1.647281646728515625e-02,-1.921924948692321777e-02
8.998000000000000000e+03,1.530000019073486328e+01,4.400000095367431641e+00,4.331416558756018276e-09,5.496488242329178320e-08,5.961856842041015625e-01,-1.647269539535045624e-02,-1.921915076673030853e-02
8.999000000000000000e+03,1.539999961853027344e+01,4.400000095367431641e+00,4.360041661044533612e-09,5.569407335315190721e-08,5.961858034133911133e-01,-1.647253148257732391e-02,-1.921862922608852386e-02
9.000000000000000000e+03,1.550000000000000000e+01,4.400000095367431641e+00,4.388666763333048948e-09,5.642803202476898150e-08,5.961859226226806641e-01,-1.647231914103031158e-02,-1.921844482421875000e-02
9.001000000000000000e+03,1.560000038146972656e+01,4.400000095367431641e+00,4.417292309710774134e-09,5.716674778000196966e-08,5.961861014366149902e-01,-1.647205092012882233e-02,-1.921800896525382996e-02
9.002000000000000000e+03,1.569999980926513672e+01,4.400000095367431641e+00,4.445916967910079620e-09,5.791021351342351409e-08,5.961863398551940918e-01,-1.647171936929225922e-02,-1.921730674803256989e-02
9.003000000000000000e+03,1.580000019073486328e+01,4.400000095367431641e+00,4.474542514287804806e-09,5.865844698860200879e-08,5.961866378784179688e-01,-1.647130958735942841e-02,-1.921689882874488831e-02
9.004000000000000000e+03,1.589999961853027344e+01,4.400000095367431641e+00,4.503167172487110292e-09,5.941143399468273856e-08,5.961869955062866211e-01,-1.647081412374973297e-02,-1.921599544584751129e-02
9.005000000000000000e+03,1.600000000000000000e+01,4.400000095367431641e+00,4.531792718864835479e-09,6.016918518980673980e-08,5.961874723434448242e-01,-1.647021621465682983e-02,-1.921534352004528046e-02
9.006000000000000000e+03,1.610000038146972656e+01,4.400000095367431641e+00,4.560417821153350815e-09,6.093169702126033371e-08,5.961879491806030273e-01,-1.646949909627437592e-02,-1.921434327960014343e-02
9.007000000000000000e+03,1.620000076293945312e+01,4.400000095367431641e+00,4.589043367531076001e-09,6.169896948904352030e-08,5.961886048316955566e-01,-1.646864600479602814e-02,-1.921315491199493408e-02
9.008000000000000000e+03,1.629999923706054688e+01,4.400000095367431641e+00,4.617668025730381487e-09,6.247098127687422675e-08,5.961893200874328613e-01,-1.646763458847999573e-02,-1.921136304736137390e-02
9.009000000000000000e+03,1.639999961853027344e+01,4.400000095367431641e+00,4.646293572108106673e-09,6.324776791188924108e-08,5.961901545524597168e-01,-1.646643877029418945e-02,-1.921008154749870300e-02
9.010000000000000000e+03,1.650000000000000000e+01,4.400000095367431641e+00,4.674918674396622009e-09,6.402932228866120568e-08,5.961911678314208984e-01,-1.646503247320652008e-02,-1.920811459422111511e-02
9.011000000000000000e+03,1.660000038146972656e+01,4.400000095367431641e+00,4.703544220774347195e-09,6.481563019633540534e-08,5.961922407150268555e-01,-1.646338030695915222e-02,-1.920579560101032257e-02
9.012000000000000000e+03,1.670000076293945312e+01,4.400000095367431641e+00,4.732169767152072382e-09,6.560669163491184008e-08,5.961935520172119141e-01,-1.646144688129425049e-02,-1.920306682586669922e-02
9.013000000000000000e+03,1.679999923706054688e+01,4.400000095367431641e+00,4.760794425351377868e-09,6.640250660439050989e-08,5.961950421333312988e-01,-1.645918563008308411e-02,-1.919948309659957886e-02
9.014000000000000000e+03,1.689999961853027344e+01,4.400000095367431641e+00,4.789419971729103054e-09,6.720308931562612997e-08,5.961967110633850098e-01,-1.645654998719692230e-02,-1.919612288475036621e-02
9.015000000000000000e+03,1.700000000000000000e+01,4.400000095367431641e+00,4.818045518106828240e-09,6.800843266319134273e-08,5.961986184120178223e-01,-1.645348407328128815e-02,-1.919174939393997192e-02
9.016000000000000000e+03,1.710000038146972656e+01,4.400000095367431641e+00,4.846671064484553426e-09,6.881853664708614815e-08,5.962007641792297363e-01,-1.644992083311080933e-02,-1.918665692210197449e-02
9.017000000000000000e+03,1.720000076293945312e+01,4.400000095367431641e+00,4.875297054951488462e-09,6.963340126731054625e-08,5.962031483650207520e-01,-1.644578576087951660e-02,-1.918073929846286774e-02
9.018000000000000000e+03,1.729999923706054688e+01,4.400000095367431641e+00,4.903922157240003799e-09,7.045300520758246421e-08,5.962058305740356445e-01,-1.644099503755569458e-02,-1.917349733412265778e-02
9.019000000000000000e+03,1.739999961853027344e+01,4.400000095367431641e+00,4.932548147706938835e-09,7.127739110046604765e-08,5.962087512016296387e-01,-1.643544621765613556e-02,-1.916595548391342163e-02
9.020000000000000000e+03,1.750000000000000000e+01,4.400000095367431641e+00,4.961173694084664021e-09,7.210653052425186615e-08,5.962119698524475098e-01,-1.642902754247188568e-02,-1.915681734681129456e-02
9.021000000000000000e+03,1.760000038146972656e+01,4.400000095367431641e+00,4.989799684551599057e-09,7.294043058436727733e-08,5.962153673171997070e-01,-1.642160490155220032e-02,-1.914631202816963196e-02
9.022000000000000000e+03,1.770000076293945312e+01,4.400000095367431641e+00,5.018425675018534093e-09,7.377909128081228118e-08,5.962190032005310059e-01,-1.641302555799484253e-02,-1.913426630198955536e-02
9.023000000000000000e+03,1.779999923706054688e+01,4.400000095367431641e+00,5.047051221396259280e-09,7.462249840273216250e-08,5.962227582931518555e-01,-1.640311069786548615e-02,-1.912011764943599701e-02
9.024000000000000000e+03,1.789999961853027344e+01,4.400000095367431641e+00,5.075677211863194316e-09,7.547067326640899410e-08,5.962265729904174805e-01,-1.639164984226226807e-02,-1.910482160747051239e-02
9.025000000000000000e+03,1.800000000000000000e+01,4.400000095367431641e+00,5.104303202330129352e-09,7.632361587184277596e-08,5.962302088737487793e-01,-1.637840270996093750e-02,-1.908702962100505829e-02
9.026000000000000000e+03,1.810000038146972656e+01,4.400000095367431641e+00,5.132929192797064388e-09,7.718131200817879289e-08,5.962334275245666504e-01,-1.636308431625366211e-02,-1.906693354249000549e-02
9.027000000000000000e+03,1.820000076293945312e+01,4.400000095367431641e+00,5.161554739174789574e-09,7.804376878084440250e-08,5.962358713150024414e-01,-1.634537428617477417e-02,-1.904435269534587860e-02
9.028000000000000000e+03,1.829999923706054688e+01,4.400000095367431641e+00,5.190179841463304911e-09,7.891096487355753197e-08,5.962370038032531738e-01,-1.632489822804927826e-02,-1.901876740157604218e-02
9.029000000000000000e+03,1.839999961853027344e+01,4.400000095367431641e+00,5.218804943751820247e-09,7.978294291888232692e-08,5.962361693382263184e-01,-1.630125008523464203e-02,-1.899126917123794556e-02
9.030000000000000000e+03,1.850000000000000000e+01,4.400000095367431641e+00,5.247429601951125733e-09,8.065967449510935694e-08,5.962322950363159180e-01,-1.627399027347564697e-02,-1.896077767014503479e-02
9.031000000000000000e+03,1.860000038146972656e+01,4.400000095367431641e+00,5.276053371972011519e-09,8.154116670766597963e-08,5.962240099906921387e-01,-1.624270156025886536e-02,-1.892797276377677917e-02
9.032000000000000000e+03,1.870000076293945312e+01,4.400000095367431641e+00,5.304675809725267754e-09,8.242741245112483739e-08,5.962093472480773926e-01,-1.620706170797348022e-02,-1.889351196587085724e-02
9.033000000000000000e+03,1.879999923706054688e+01,4.400000095367431641e+00,5.333296471121684590e-09,8.331840462005857262e-08,5.961858034133911133e-01,-1.616701111197471619e-02,-1.885825395584106445e-02
9.034000000000000000e+03,1.889999961853027344e+01,4.400000095367431641e+00,5.361914912072052175e-09,8.421416453074925812e-08,5.961498022079467773e-01,-1.612307876348495483e-02,-1.882549561560153961e-02
9.035000000000000000e+03,1.900000000000000000e+01,4.400000095367431641e+00,5.390530244397950810e-09,8.511467797234217869e-08,5.960966348648071289e-01,-1.607697270810604095e-02,-1.879762671887874603e-02
9.036000000000000000e+03,1.910000038146972656e+01,4.400000095367431641e+00,5.419141135831750944e-09,8.601995205026469193e-08,5.960204601287841797e-01,-1.603264734148979187e-02,-1.878064312040805817e-02
9.037000000000000000e+03,1.920000076293945312e+01,4.400000095367431641e+00,5.447746698195032877e-09,8.692997255366208265e-08,5.959142446517944336e-01,-1.599816977977752686e-02,-1.878304220736026764e-02
9.038000000000000000e+03,1.929999923706054688e+01,4.400000095367431641e+00,5.476344711041747360e-09,8.784471816625227802e-08,5.957708358764648438e-01,-1.598871313035488129e-02,-1.881652325391769409e-02
9.039000000000000000e+03,1.939999961853027344e+01,4.400000095367431641e+00,5.504935174371894391e-09,8.876423152059942367e-08,5.955858230590820312e-01,-1.603074371814727783e-02,-1.889753155410289764e-02
9.040000000000000000e+03,1.950000000000000000e+01,4.400000095367431641e+00,5.533516755917844421e-09,8.968847708956673159e-08,5.953636169433593750e-01,-1.616600714623928070e-02,-1.903970353305339813e-02
9.041000000000000000e+03,1.960000038146972656e+01,4.400000095367431641e+00,5.562091232036436850e-09,9.061746197858155938e-08,5.951278209686279297e-01,-1.644830219447612762e-02,-1.924619637429714203e-02
9.042000000000000000e+03,1.970000076293945312e+01,4.400000095367431641e+00,5.590663043619770178e-09,9.155117197678919183e-08,5.949268937110900879e-01,-1.692493259906768799e-02,-1.948874071240425110e-02
9.043000000000000000e+03,1.979999923706054688e+01,4.400000095367431641e+00,5.619238852005992158e-09,9.248960708418962895e-08,5.948236584663391113e-01,-1.759536750614643097e-02,-1.968964561820030212e-02
9.044000000000000000e+03,1.989999961853027344e+01,4.400000095367431641e+00,5.647827538979299788e-09,9.343281703877437394e-08,5.948485732078552246e-01,-1.837296411395072937e-02,-1.973623223602771759e-02
9.045000000000000000e+03,2.000000000000000000e+01,4.400000095367431641e+00,5.676431769074952172e-09,9.438081605139814201e-08,5.949553251266479492e-01,-1.908747851848602295e-02,-1.953296735882759094e-02
9.046000000000000000e+03,0.000000000000000000e+00,4.500000000000000000e+00,1.490269566291881924e-38,-6.111341461314927885e-39,6.113218069076538086e-01,1.833965331315994263e-01,-2.941347658634185791e-01
9.047000000000000000e+03,1.000000014901161194e-01,4.500000000000000000e+00,2.649061178749967382e-11,-3.641668910869810816e-11,6.136736869812011719e-01,1.912362277507781982e-01,-3.160514533519744873e-01
9.048000000000000000e+03,2.000000029802322388e-01,4.500000000000000000e+00,5.280136397556312033e-11,-6.840375488259553549e-11,6.070703268051147461e-01,1.818150728940963745e-01,-3.028412759304046631e-01
9.049000000000000000e+03,3.000000119209289551e-01,4.500000000000000000e+00,7.916793609563654854e-11,-9.554997071337112402e-11,6.028708219528198242e-01,1.639093309640884399e-01,-2.866942584514617920e-01
9.050000000000000000e+03,4.000000059604644775e-01,4.500000000000000000e+00,1.056047332914644699e-10,-1.171983760039907452e-10,5.979580283164978027e-01,1.426174342632293701e-01,-2.660813331604003906e-01
9.051000000000000000e+03,5.000000000000000000e-01,4.500000000000000000e+00,1.319696296686601045e-10,-1.327438159393068418e-10,5.900819301605224609e-01,1.213972792029380798e-01,-2.421905845403671265e-01
9.052000000000000000e+03,6.000000238418579102e-01,4.500000000000000000e+00,1.580835184977757990e-10,-1.417648221035960887e-10,5.789831876754760742e-01,1.019715294241905212e-01,-2.170685827732086182e-01
9.053000000000000000e+03,6.999999880790710449e-01,4.500000000000000000e+00,1.838027507972128660e-10,-1.440222385795664195e-10,5.655749440193176270e-01,8.490313589572906494e-02,-1.923999339342117310e-01
9.054000000000000000e+03,8.000000119209289551e-01,4.500000000000000000e+00,2.090429357393119858e-10,-1.394106358132418677e-10,5.511006116867065430e-01,7.018982619047164917e-02,-1.691803634166717529e-01
9.055000000000000000e+03,8.999999761581420898e-01,4.500000000000000000e+00,2.337704751997904395e-10,-1.279101963236328743e-10,5.365592241287231445e-01,5.760227516293525696e-02,-1.478667259216308594e-01
9.056000000000000000e+03,1.000000000000000000e+00,4.500000000000000000e+00,2.579884084141781386e-10,-1.095543933349318877e-10,5.226308107376098633e-01,4.684712737798690796e-02,-1.286001205444335938e-01
9.057000000000000000e+03,1.100000023841857910e+00,4.500000000000000000e+00,2.817234223684295102e-10,-8.440913940033212270e-11,5.097272992134094238e-01,3.764030709862709045e-02,-1.113521456718444824e-01
9.058000000000000000e+03,1.200000047683715820e+00,4.500000000000000000e+00,3.050162344919726820e-10,-5.255980720098030190e-11,4.980686008930206299e-01,2.973268926143646240e-02,-9.601237624883651733e-02
9.059000000000000000e+03,1.299999952316284180e+00,4.500000000000000000e+00,3.279148341750470763e-10,-1.410303644699961723e-11,4.877458512783050537e-01,2.291537448763847351e-02,-8.243577182292938232e-02
9.060000000000000000e+03,1.399999976158142090e+00,4.500000000000000000e+00,3.504702084100586035e-10,3.085874958341783270e-11,4.787673354148864746e-01,1.701665483415126801e-02,-7.046770304441452026e-02
9.061000000000000000e+03,1.500000000000000000e+00,4.500000000000000000e+00,3.727330943892326331e-10,8.222052205741903208e-11,4.710898101329803467e-01,1.189646404236555099e-02,-5.995617061853408813e-02
9.062000000000000000e+03,1.600000023841857910e+00,4.500000000000000000e+00,3.947525084591063660e-10,1.398771654059771663e-10,4.646394252777099609e-01,7.440580520778894424e-03,-5.075783282518386841e-02
9.063000000000000000e+03,1.700000047683715820e+00,4.500000000000000000e+00,4.165743583417480522e-10,2.037250507180843329e-10,4.593254327774047852e-01,3.555484814569354057e-03,-4.274014756083488464e-02
9.064000000000000000e+03,1.799999952316284180e+00,4.500000000000000000e+00,4.382409990455471416e-10,2.736629256538947175e-10,4.550491273403167725e-01,1.641137932892888784e-04,-3.578187897801399231e-02
9.065000000000000000e+03,1.899999976158142090e+00,4.500000000000000000e+00,4.597909553094581270e-10,3.495931877317559611e-10,4.517096877098083496e-01,-2.797571010887622833e-03,-2.977286279201507568e-02
9.066000000000000000e+03,2.000000000000000000e+00,4.500000000000000000e+00,4.812586995583956195e-10,4.314217039169676582e-10,4.492079615592956543e-01,-5.383252166211605072e-03,-2.461300231516361237e-02
9.067000000000000000e+03,2.099999904632568359e+00,4.500000000000000000e+00,5.026749017034148892e-10,5.190585739001107868e-10,4.474485516548156738e-01,-7.638368289917707443e-03,-2.021167241036891937e-02
9.068000000000000000e+03,2.200000047683715820e+00,4.500000000000000000e+00,5.240664568972874804e-10,6.124186713307722130e-10,4.463415145874023438e-01,-9.601757861673831940e-03,-1.648682914674282074e-02
9.069000000000000000e+03,2.299999952316284180e+00,4.500000000000000000e+00,5.454566798235305214e-10,7.114205891056712971e-10,4.458028674125671387e-01,-1.130690146237611771e-02,-1.336384844034910202e-02
9.070000000000000000e+03,2.400000095367431641e+00,4.500000000000000000e+00,5.668657210300409588e-10,8.159885545033773724e-10,4.457551240921020508e-01,-1.278294064104557037e-02,-1.077545061707496643e-02
9.071000000000000000e+03,2.500000000000000000e+00,4.500000000000000000e+00,5.883106779513980200e-10,9.260501809826848785e-10,4.461272656917572021e-01,-1.405541319400072098e-02,-8.660238236188888550e-03
9.072000000000000000e+03,2.599999904632568359e+00,4.500000000000000000e+00,6.098058169534681383e-10,1.041538411072906456e-09,4.468547403812408447e-01,-1.514688506722450256e-02,-6.962909828871488571e-03
9.073000000000000000e+03,2.700000047683715820e+00,4.500000000000000000e+00,6.313631284449172654e-10,1.162390850240058171e-09,4.478791654109954834e-01,-1.607739925384521484e-02,-5.633214954286813736e-03
9.074000000000000000e+03,2.799999952316284180e+00,4.500000000000000000e+00,6.529919938103034838e-10,1.288548268085776272e-09,4.491480588912963867e-01,-1.686484739184379578e-02,-4.625511355698108673e-03
9.075000000000000000e+03,2.900000095367431641e+00,4.500000000000000000e+00,6.747002401219504009e-10,1.419957040837971363e-09,4.506145119667053223e-01,-1.752528175711631775e-02,-3.898880677297711372e-03
9.076000000000000000e+03,3.000000000000000000e+00,4.500000000000000000e+00,6.964935295172836049e-10,1.556566098237510687e-09,4.522368609905242920e-01,-1.807313039898872375e-02,-3.415978280827403069e-03
9.077000000000000000e+03,3.099999904632568359e+00,4.500000000000000000e+00,7.183760808437966716e-10,1.698329255006569838e-09,4.539782404899597168e-01,-1.852140761911869049e-02,-3.143492387607693672e-03
9.078000000000000000e+03,3.200000047683715820e+00,4.500000000000000000e+00,7.403508917036560888e-10,1.845204211647910597e-09,4.558062553405761719e-01,-1.888186112046241760e-02,-3.051320323720574379e-03
9.079000000000000000e+03,3.299999952316284180e+00,4.500000000000000000e+00,7.624195719202475630e-10,1.997150889110343996e-09,4.576925635337829590e-01,-1.916510052978992462e-02,-3.112299134954810143e-03
9.080000000000000000e+03,3.400000095367431641e+00,4.500000000000000000e+00,7.845827876273858692e-10,2.154133760257082031e-09,4.596126377582550049e-01,-1.938071474432945251e-02,-3.302466822788119316e-03
9.081000000000000000e+03,3.500000000000000000e+00,4.500000000000000000e+00,8.068402057581636200e-10,2.316119740441990871e-09,4.615452587604522705e-01,-1.953735947608947754e-02,-3.600055817514657974e-03
9.082000000000000000e+03,3.599999904632568359e+00,4.500000000000000000e+00,8.291909381341611152e-10,2.483078853643405637e-09,4.634723663330078125e-01,-1.964284852147102356e-02,-3.986045252531766891e-03
9.083000000000000000e+03,3.700000047683715820e+00,4.500000000000000000e+00,8.516333194208414170e-10,2.654984232464130400e-09,4.653786420822143555e-01,-1.970421336591243744e-02,-4.443448502570390701e-03
9.084000000000000000e+03,3.799999952316284180e+00,4.500000000000000000e+00,8.741651846833065065e-10,2.831810785863808633e-09,4.672512412071228027e-01,-1.972777582705020905e-02,-4.957121331244707108e-03
9.085000000000000000e+03,3.900000095367431641e+00,4.500000000000000000e+00,8.967840359197509770e-10,3.013536975515762606e-09,4.690795838832855225e-01,-1.971921138465404510e-02,-5.514095071703195572e-03
9.086000000000000000e+03,4.000000000000000000e+00,4.500000000000000000e+00,9.194868755280083406e-10,3.200141707182524442e-09,4.708550572395324707e-01,-1.968358829617500305e-02,-6.102652288973331451e-03
9.087000000000000000e+03,4.099999904632568359e+00,4.500000000000000000e+00,9.422705948836096468e-10,3.391607439340305064e-09,4.725707769393920898e-01,-1.962543465197086334e-02,-6.712929811328649521e-03
9.088000000000000000e+03,4.199999809265136719e+00,4.500000000000000000e+00,9.651318633174810202e-10,3.587918184777549868e-09,4.742214977741241455e-01,-1.954876817762851715e-02,-7.336223963648080826e-03
9.089000000000000000e+03,4.300000190734863281e+00,4.500000000000000000e+00,9.880671836270948916e-10,3.789060620817963354e-09,4.758032560348510742e-01,-1.945715211331844330e-02,-7.965195924043655396e-03
9.090000000000000000e+03,4.400000095367431641e+00,4.500000000000000000e+00,1.011072781054167535e-09,3.995019870473015544e-09,4.773133099079132080e-01,-1.935372129082679749e-02,-8.593239821493625641e-03
9.091000000000000000e+03,4.500000000000000000e+00,4.500000000000000000e+00,1.034145324929625076e-09,4.205785941735484812e-09,4.787499010562896729e-01,-1.924123801290988922e-02,-9.215291589498519897e-03
9.092000000000000000e+03,4.599999904632568359e+00,4.500000000000000000e+00,1.057280929472881326e-09,4.421348176464334756e-09,4.801122546195983887e-01,-1.912210695445537567e-02,-9.826805442571640015e-03
9.093000000000000000e+03,4.699999809265136719e+00,4.500000000000000000e+00,1.080476152992559946e-09,4.641698581053788075e-09,4.814002513885498047e-01,-1.899842172861099243e-02,-1.042411196976900101e-02
9.094000000000000000e+03,4.800000190734863281e+00,4.500000000000000000e+00,1.103727442774982137e-09,4.866830494165697019e-09,4.826144576072692871e-01,-1.887198537588119507e-02,-1.100432407110929489e-02
9.095000000000000000e+03,4.900000095367431641e+00,4.500000000000000000e+00,1.127031246106469098e-09,5.096734589926654735e-09,4.837560355663299561e-01,-1.874434761703014374e-02,-1.156480424106121063e-02
9.096000000000000000e+03,5.000000000000000000e+00,4.500000000000000000e+00,1.150384121295644491e-09,5.331406427444562723e-09,4.848265051841735840e-01,-1.861682347953319550e-02,-1.210400369018316269e-02
9.097000000000000000e+03,5.099999904632568359e+00,4.500000000000000000e+00,1.173782959718039365e-09,5.570841565827322484e-09,4.858277738094329834e-01,-1.849052682518959045e-02,-1.262048725038766861e-02
9.098000000000000000e+03,5.199999809265136719e+00,4.500000000000000000e+00,1.197224430704579845e-09,5.815035120093625665e-09,4.867621064186096191e-01,-1.836637593805789948e-02,-1.311331614851951599e-02
9.099000000000000000e+03,5.300000190734863281e+00,4.500000000000000000e+00,1.220705758697704368e-09,6.063985313886632866e-09,4.876319169998168945e-01,-1.824513450264930725e-02,-1.358199212700128555e-02
9.100000000000000000e+03,5.400000095367431641e+00,4.500000000000000000e+00,1.244223724050641522e-09,6.317686374046616038e-09,4.884397983551025391e-01,-1.812741346657276154e-02,-1.402596291154623032e-02
9.101000000000000000e+03,5.500000000000000000e+00,4.500000000000000000e+00,1.267775662228132205e-09,6.576136968305945629e-09,4.891885221004486084e-01,-1.801370270550251007e-02,-1.444547716528177261e-02
9.102000000000000000e+03,5.599999904632568359e+00,4.500000000000000000e+00,1.291359130739522243e-09,6.839335764396992090e-09,4.898808896541595459e-01,-1.790437288582324982e-02,-1.484064571559429169e-02
9.103000000000000000e+03,5.699999809265136719e+00,4.500000000000000000e+00,1.314971465049552535e-09,7.107280541873706170e-09,4.905197620391845703e-01,-1.779970154166221619e-02,-1.521184854209423065e-02
9.104000000000000000e+03,5.800000190734863281e+00,4.500000000000000000e+00,1.338610555734476293e-09,7.379971300736087869e-09,4.911080002784729004e-01,-1.769987680017948151e-02,-1.555970404297113419e-02
9.105000000000000000e+03,5.900000095367431641e+00,4.500000000000000000e+00,1.362273849281336879e-09,7.657405376448878087e-09,4.916484951972961426e-01,-1.760501600801944733e-02,-1.588459126651287079e-02
9.106000000000000000e+03,6.000000000000000000e+00,4.500000000000000000e+00,1.385959458310992432e-09,7.939582324922866974e-09,4.921440780162811279e-01,-1.751517504453659058e-02,-1.618753187358379364e-02
9.107000000000000000e+03,6.099999904632568359e+00,4.500000000000000000e+00,1.409665495444301087e-09,8.226503034336474229e-09,4.925974607467651367e-01,-1.743035204708576202e-02,-1.646926254034042358e-02
9.108000000000000000e+03,6.199999809265136719e+00,4.500000000000000000e+00,1.433390073302120982e-09,8.518165728332860454e-09,4.930113852024078369e-01,-1.735050603747367859e-02,-1.673066616058349609e-02
9.109000000000000000e+03,6.300000190734863281e+00,4.500000000000000000e+00,1.457131637572217642e-09,8.814573071447284747e-09,4.933884739875793457e-01,-1.727555319666862488e-02,-1.697274670004844666e-02
9.110000000000000000e+03,6.400000095367431641e+00,4.500000000000000000e+00,1.480888411897751666e-09,9.115721510966068308e-09,4.937312006950378418e-01,-1.720537990331649780e-02,-1.719618216156959534e-02
9.111000000000000000e+03,6.500000000000000000e+00,4.500000000000000000e+00,1.504659064011093506e-09,9.421612823246050539e-09,4.940420389175415039e-01,-1.713985204696655273e-02,-1.740219630300998688e-02
9.112000000000000000e+03,6.599999904632568359e+00,4.500000000000000000e+00,1.528442150622311146e-09,9.732247896465651138e-09,4.943232834339141846e-01,-1.707881130278110504e-02,-1.759166456758975983e-02
9.113000000000000000e+03,6.699999809265136719e+00,4.500000000000000000e+00,1.552236672530682426e-09,1.004762673062487011e-08,4.945771396160125732e-01,-1.702208817005157471e-02,-1.776554249227046967e-02
9.114000000000000000e+03,6.800000190734863281e+00,4.500000000000000000e+00,1.576041297468577795e-09,1.036775110208054684e-08,4.948056936264038086e-01,-1.696949638426303864e-02,-1.792485266923904419e-02
9.115000000000000000e+03,6.900000095367431641e+00,4.500000000000000000e+00,1.599855026235275091e-09,1.069261923447584195e-08,4.950109720230102539e-01,-1.692084968090057373e-02,-1.807024888694286346e-02
9.116000000000000000e+03,7.000000000000000000e+00,4.500000000000000000e+00,1.623676748607749687e-09,1.102223201598917512e-08,4.951948523521423340e-01,-1.687594875693321228e-02,-1.820288971066474915e-02
9.117000000000000000e+03,7.099999904632568359e+00,4.500000000000000000e+00,1.647505687429884347e-09,1.135659122297738577e-08,4.953590631484985352e-01,-1.683459803462028503e-02,-1.832355931401252747e-02
9.118000000000000000e+03,7.199999809265136719e+00,4.500000000000000000e+00,1.671341176567864295e-09,1.169569685544047388e-08,4.955052733421325684e-01,-1.679660007357597351e-02,-1.843308843672275543e-02
9.119000000000000000e+03,7.300000190734863281e+00,4.500000000000000000e+00,1.695182327843269832e-09,1.203955157791369857e-08,4.956350624561309814e-01,-1.676175743341445923e-02,-1.853236556053161621e-02
9.120000000000000000e+03,7.400000095367431641e+00,4.500000000000000000e+00,1.719028475122286181e-09,1.238815272586180072e-08,4.957498908042907715e-01,-1.672988012433052063e-02,-1.862188242375850677e-02
9.121000000000000000e+03,7.500000000000000000e+00,4.500000000000000000e+00,1.742878952271098569e-09,1.274150207564161974e-08,4.958510696887969971e-01,-1.670077629387378693e-02,-1.870263740420341492e-02
9.122000000000000000e+03,7.599999904632568359e+00,4.500000000000000000e+00,1.766733315200497145e-09,1.309959962725315563e-08,4.959398806095123291e-01,-1.667426712810993195e-02,-1.877523027360439301e-02
9.123000000000000000e+03,7.699999809265136719e+00,4.500000000000000000e+00,1.790591119821272059e-09,1.346244804523166749e-08,4.960174858570098877e-01,-1.665017195045948029e-02,-1.884031668305397034e-02
9.124000000000000000e+03,7.800000190734863281e+00,4.500000000000000000e+00,1.814451811021910999e-09,1.383004821775557502e-08,4.960849881172180176e-01,-1.662832312285900116e-02,-1.889859512448310852e-02
9.125000000000000000e+03,7.900000095367431641e+00,4.500000000000000000e+00,1.838314944713204113e-09,1.420239659211119942e-08,4.961433708667755127e-01,-1.660855486989021301e-02,-1.895037665963172913e-02
9.126000000000000000e+03,8.000000000000000000e+00,4.500000000000000000e+00,1.862180187828244016e-09,1.457949760919063920e-08,4.961935579776763916e-01,-1.659071631729602814e-02,-1.899646967649459839e-02
9.127000000000000000e+03,8.100000381469726562e+00,4.500000000000000000e+00,1.886047318322425781e-09,1.496135126899389434e-08,4.962364137172698975e-01,-1.657465472817420959e-02,-1.903738640248775482e-02
9.128000000000000000e+03,8.199999809265136719e+00,4.500000000000000000e+00,1.909915781084237096e-09,1.534795401880728605e-08,4.962726831436157227e-01,-1.656023412942886353e-02,-1.907323114573955536e-02
9.129000000000000000e+03,8.300000190734863281e+00,4.500000000000000000e+00,1.933785798158282887e-09,1.573931385223659163e-08,4.963030815124511719e-01,-1.654731854796409607e-02,-1.910508424043655396e-02
9.130000000000000000e+03,8.399999618530273438e+00,4.500000000000000000e+00,1.957656481366143453e-09,1.613542366385445348e-08,4.963282942771911621e-01,-1.653578691184520721e-02,-1.913262531161308289e-02
9.131000000000000000e+03,8.500000000000000000e+00,4.500000000000000000e+00,1.981528496841633569e-09,1.653629055908822920e-08,4.963488876819610596e-01,-1.652552001178264618e-02,-1.915696263313293457e-02
9.132000000000000000e+03,8.600000381469726562e+00,4.500000000000000000e+00,2.005400956406333535e-09,1.694191098522423999e-08,4.963654279708862305e-01,-1.651640981435775757e-02,-1.917789690196514130e-02
9.133000000000000000e+03,8.699999809265136719e+00,4.500000000000000000e+00,2.029273638015638426e-09,1.735228316590564646e-08,4.963783621788024902e-01,-1.650835201144218445e-02,-1.919575221836566925e-02
9.134000000000000000e+03,8.800000190734863281e+00,4.500000000000000000e+00,2.053146985758758092e-09,1.776741420655980619e-08,4.963881969451904297e-01,-1.650125347077846527e-02,-1.921137236058712006e-02
9.135000000000000000e+03,8.899999618530273438e+00,4.500000000000000000e+00,2.077020333501877758e-09,1.818729522540252219e-08,4.963952898979187012e-01,-1.649502292275428772e-02,-1.922430284321308136e-02
9.136000000000000000e+03,9.000000000000000000e+00,4.500000000000000000e+00,2.100894125334207274e-09,1.861193688057483087e-08,4.963999986648559570e-01,-1.648958027362823486e-02,-1.923552155494689941e-02
9.137000000000000000e+03,9.100000381469726562e+00,4.500000000000000000e+00,2.124767917166536790e-09,1.904133561936305341e-08,4.964026808738708496e-01,-1.648484729230403900e-02,-1.924471184611320496e-02
9.138000000000000000e+03,9.199999809265136719e+00,4.500000000000000000e+00,2.148641486954261381e-09,1.947548611269667163e-08,4.964036345481872559e-01,-1.648075506091117859e-02,-1.925208047032356262e-02
9.139000000000000000e+03,9.300000190734863281e+00,4.500000000000000000e+00,2.172515278786590898e-09,1.991439546600304311e-08,4.964030981063842773e-01,-1.647723838686943054e-02,-1.925836876034736633e-02
9.140000000000000000e+03,9.399999618530273438e+00,4.500000000000000000e+00,2.196388626529710564e-09,2.035805835021164967e-08,4.964013099670410156e-01,-1.647423952817916870e-02,-1.926301605999469757e-02
9.141000000000000000e+03,9.500000000000000000e+00,4.500000000000000000e+00,2.220261974272830230e-09,2.080648364710668830e-08,4.963984787464141846e-01,-1.647169888019561768e-02,-1.926691271364688873e-02
9.142000000000000000e+03,9.600000381469726562e+00,4.500000000000000000e+00,2.244135322015949896e-09,2.125966602761764079e-08,4.963947832584381104e-01,-1.646957173943519592e-02,-1.926965266466140747e-02
9.143000000000000000e+03,9.699999809265136719e+00,4.500000000000000000e+00,2.268008003625254787e-09,2.171760016267398896e-08,4.963904321193695068e-01,-1.646780781447887421e-02,-1.927136071026325226e-02
9.144000000000000000e+03,9.800000190734863281e+00,4.500000000000000000e+00,2.291880685234559678e-09,2.218029671041676920e-08,4.963854849338531494e-01,-1.646636798977851868e-02,-1.927270367741584778e-02
9.145000000000000000e+03,9.899999618530273438e+00,4.500000000000000000e+00,2.315752922754654719e-09,2.264774678906178451e-08,4.963801503181457520e-01,-1.646521314978599548e-02,-1.927305571734905243e-02
9.146000000000000000e+03,1.000000000000000000e+01,4.500000000000000000e+00,2.339625160274749760e-09,2.311995928039323189e-08,4.963744878768920898e-01,-1.646430976688861847e-02,-1.927323639392852783e-02
9.147000000000000000e+03,1.010000038146972656e+01,4.500000000000000000e+00,2.363496953705634951e-09,2.359692885534059315e-08,4.963686466217041016e-01,-1.646362431347370148e-02,-1.927278563380241394e-02
9.148000000000000000e+03,1.019999980926513672e+01,4.500000000000000000e+00,2.387368303047310292e-09,2.407865196119018947e-08,4.963626265525817871e-01,-1.646313071250915527e-02,-1.927176304161548615e-02
9.149000000000000000e+03,1.030000019073486328e+01,4.500000000000000000e+00,2.411239652388985633e-09,2.456513925608305726e-08,4.963565766811370850e-01,-1.646280288696289062e-02,-1.927081122994422913e-02
9.150000000000000000e+03,1.039999961853027344e+01,4.500000000000000000e+00,2.435110557641451123e-09,2.505638008187816013e-08,4.963504970073699951e-01,-1.646261848509311676e-02,-1.926922053098678589e-02
9.151000000000000000e+03,1.050000000000000000e+01,4.500000000000000000e+00,2.458981240849311689e-09,2.555238332035969506e-08,4.963444769382476807e-01,-1.646255515515804291e-02,-1.926781237125396729e-02
9.152000000000000000e+03,1.060000038146972656e+01,4.500000000000000000e+00,2.482851702012567330e-09,2.605314541881398327e-08,4.963385760784149170e-01,-1.646259613335132599e-02,-1.926605217158794403e-02
9.153000000000000000e+03,1.069999980926513672e+01,4.500000000000000000e+00,2.506721497042008195e-09,2.655866104817050655e-08,4.963327646255493164e-01,-1.646272465586662292e-02,-1.926398277282714844e-02
9.154000000000000000e+03,1.080000019073486328e+01,4.500000000000000000e+00,2.530591514116053986e-09,2.706894086657030130e-08,4.963271319866180420e-01,-1.646292395889759064e-02,-1.926221325993537903e-02
9.155000000000000000e+03,1.089999961853027344e+01,4.500000000000000000e+00,2.554460865056285002e-09,2.758397243951549171e-08,4.963216781616210938e-01,-1.646318472921848297e-02,-1.926000230014324188e-02
9.156000000000000000e+03,1.100000000000000000e+01,4.500000000000000000e+00,2.578330215996516017e-09,2.810376997786079301e-08,4.963164329528808594e-01,-1.646349392831325531e-02,-1.925814896821975708e-02
9.157000000000000000e+03,1.110000038146972656e+01,4.500000000000000000e+00,2.602199566936747033e-09,2.862832637617884757e-08,4.963113665580749512e-01,-1.646384038031101227e-02,-1.925609447062015533e-02
9.158000000000000000e+03,1.119999980926513672e+01,4.500000000000000000e+00,2.626068251743163273e-09,2.915763452904229780e-08,4.963065385818481445e-01,-1.646421663463115692e-02,-1.925385929644107819e-02
9.159000000000000000e+03,1.130000019073486328e+01,4.500000000000000000e+00,2.649936936549579514e-09,2.969170864730585890e-08,4.963019490242004395e-01,-1.646461337804794312e-02,-1.925203390419483185e-02
9.160000000000000000e+03,1.139999961853027344e+01,4.500000000000000000e+00,2.673805177266785904e-09,3.023053452011481568e-08,4.962975680828094482e-01,-1.646502688527107239e-02,-1.924986392259597778e-02
9.161000000000000000e+03,1.150000000000000000e+01,4.500000000000000000e+00,2.697673417983992294e-09,3.077412813468072272e-08,4.962934553623199463e-01,-1.646544784307479858e-02,-1.924812979996204376e-02
9.162000000000000000e+03,1.160000038146972656e+01,4.500000000000000000e+00,2.721541658701198685e-09,3.132247883286254364e-08,4.962895214557647705e-01,-1.646587438881397247e-02,-1.924625970423221588e-02
9.163000000000000000e+03,1.169999980926513672e+01,4.500000000000000000e+00,2.745409455329195225e-09,3.187558306194659963e-08,4.962858557701110840e-01,-1.646630093455314636e-02,-1.924426294863224030e-02
9.164000000000000000e+03,1.180000019073486328e+01,4.500000000000000000e+00,2.769277251957191766e-09,3.243345148007392709e-08,4.962823987007141113e-01,-1.646672375500202179e-02,-1.924272067844867706e-02
9.165000000000000000e+03,1.189999961853027344e+01,4.500000000000000000e+00,2.793144604495978456e-09,3.299607342910348962e-08,4.962791502475738525e-01,-1.646714098751544952e-02,-1.924086920917034149e-02
9.166000000000000000e+03,1.200000000000000000e+01,4.500000000000000000e+00,2.817012179079370071e-09,3.356345956717632362e-08,4.962761104106903076e-01,-1.646754704415798187e-02,-1.923947781324386597e-02
9.167000000000000000e+03,1.210000038146972656e+01,4.500000000000000000e+00,2.840879753662761686e-09,3.413560278886507149e-08,4.962733089923858643e-01,-1.646794378757476807e-02,-1.923797093331813812e-02
9.168000000000000000e+03,1.219999980926513672e+01,4.500000000000000000e+00,2.864746662112338527e-09,3.471250309416973323e-08,4.962706565856933594e-01,-1.646832749247550964e-02,-1.923635229468345642e-02
9.169000000000000000e+03,1.230000019073486328e+01,4.500000000000000000e+00,2.888613792606520292e-09,3.529416758851766645e-08,4.962682127952575684e-01,-1.646869815886020660e-02,-1.923519559204578400e-02
9.170000000000000000e+03,1.239999961853027344e+01,4.500000000000000000e+00,2.912480701056097132e-09,3.588058561376783473e-08,4.962659478187561035e-01,-1.646905206143856049e-02,-1.923373341560363770e-02
9.171000000000000000e+03,1.250000000000000000e+01,4.500000000000000000e+00,2.936347831550278897e-09,3.647176782806127449e-08,4.962638616561889648e-01,-1.646939292550086975e-02,-1.923273131251335144e-02
9.172000000000000000e+03,1.260000038146972656e+01,4.500000000000000000e+00,2.960214517955250813e-09,3.706770712597062811e-08,4.962619245052337646e-01,-1.646971702575683594e-02,-1.923161186277866364e-02
9.173000000000000000e+03,1.269999980926513672e+01,4.500000000000000000e+00,2.984081204360222728e-09,3.766840350749589561e-08,4.962601661682128906e-01,-1.647002436220645905e-02,-1.923037320375442505e-02
9.174000000000000000e+03,1.280000019073486328e+01,4.500000000000000000e+00,3.007947890765194643e-09,3.827386407806443458e-08,4.962585270404815674e-01,-1.647031679749488831e-02,-1.922959089279174805e-02
9.175000000000000000e+03,1.289999961853027344e+01,4.500000000000000000e+00,3.031814355125561633e-09,3.888407462682152982e-08,4.962570071220397949e-01,-1.647059246897697449e-02,-1.922849006950855255e-02
9.176000000000000000e+03,1.300000000000000000e+01,4.500000000000000000e+00,3.055681041530533548e-09,3.949905291733557533e-08,4.962556362152099609e-01,-1.647085323929786682e-02,-1.922783814370632172e-02
9.177000000000000000e+03,1.310000038146972656e+01,4.500000000000000000e+00,3.079547505890900538e-09,4.011879184417921351e-08,4.962543845176696777e-01,-1.647109724581241608e-02,-1.922705769538879395e-02
9.178000000000000000e+03,1.319999980926513672e+01,4.500000000000000000e+00,3.103413748206662603e-09,4.074328074921140797e-08,4.962532222270965576e-01,-1.647132821381092072e-02,-1.922614499926567078e-02
9.179000000000000000e+03,1.330000019073486328e+01,4.500000000000000000e+00,3.127280212567029594e-09,4.137253739600055269e-08,4.962521791458129883e-01,-1.647154241800308228e-02,-1.922567188739776611e-02
9.180000000000000000e+03,1.339999961853027344e+01,4.500000000000000000e+00,3.151146454882791659e-09,4.200654402097825368e-08,4.962512254714965820e-01,-1.647174172103404999e-02,-1.922486722469329834e-02
9.181000000000000000e+03,1.350000000000000000e+01,4.500000000000000000e+00,3.175012919243158649e-09,4.264531838771290495e-08,4.962503910064697266e-01,-1.647192798554897308e-02,-1.922449655830860138e-02
9.182000000000000000e+03,1.360000038146972656e+01,4.500000000000000000e+00,3.198879161558920714e-09,4.328884983806347009e-08,4.962496161460876465e-01,-1.647210121154785156e-02,-1.922398246824741364e-02
9.183000000000000000e+03,1.369999980926513672e+01,4.500000000000000000e+00,3.222745181830077854e-09,4.393713837202994910e-08,4.962489008903503418e-01,-1.647226139903068542e-02,-1.922331936657428741e-02
9.184000000000000000e+03,1.380000019073486328e+01,4.500000000000000000e+00,3.246611646190444844e-09,4.459018754232602078e-08,4.962482750415802002e-01,-1.647240854799747467e-02,-1.922308094799518585e-02
9.185000000000000000e+03,1.389999961853027344e+01,4.500000000000000000e+00,3.270477666461601984e-09,4.524799024352432752e-08,4.962477087974548340e-01,-1.647254265844821930e-02,-1.922249607741832733e-02
9.186000000000000000e+03,1.400000000000000000e+01,4.500000000000000000e+00,3.294343908777364049e-09,4.591056068647958455e-08,4.962472021579742432e-01,-1.647266559302806854e-02,-1.922233216464519501e-02
9.187000000000000000e+03,1.410000038146972656e+01,4.500000000000000000e+00,3.318209929048521190e-09,4.657788821305075544e-08,4.962467551231384277e-01,-1.647277735173702240e-02,-1.922200620174407959e-02
9.188000000000000000e+03,1.419999980926513672e+01,4.500000000000000000e+00,3.342075949319678330e-09,4.724996927052416140e-08,4.962463676929473877e-01,-1.647287607192993164e-02,-1.922151632606983185e-02
9.189000000000000000e+03,1.430000019073486328e+01,4.500000000000000000e+00,3.365942191635440395e-09,4.792681806975451764e-08,4.962460100650787354e-01,-1.647296361625194550e-02,-1.922143623232841492e-02
9.190000000000000000e+03,1.439999961853027344e+01,4.500000000000000000e+00,3.389808211906597535e-09,4.860841684717343014e-08,4.962457120418548584e-01,-1.647303812205791473e-02,-1.922099478542804718e-02
9.191000000000000000e+03,1.450000000000000000e+01,4.500000000000000000e+00,3.413674232177754675e-09,4.929478336634929292e-08,4.962454736232757568e-01,-1.647310145199298859e-02,-1.922095566987991333e-02
9.192000000000000000e+03,1.460000038146972656e+01,4.500000000000000000e+00,3.437540474493516740e-09,4.998590696914106957e-08,4.962452352046966553e-01,-1.647314988076686859e-02,-1.922073774039745331e-02
9.193000000000000000e+03,1.469999980926513672e+01,4.500000000000000000e+00,3.461406272720068955e-09,5.068178410283508128e-08,4.962450563907623291e-01,-1.647318527102470398e-02,-1.922034099698066711e-02
9.194000000000000000e+03,1.480000019073486328e+01,4.500000000000000000e+00,3.485272515035831020e-09,5.138242542557236447e-08,4.962449371814727783e-01,-1.647320576012134552e-02,-1.922033354640007019e-02
9.195000000000000000e+03,1.489999961853027344e+01,4.500000000000000000e+00,3.509138313262383235e-09,5.208782027921188273e-08,4.962448179721832275e-01,-1.647320948541164398e-02,-1.921994239091873169e-02
9.196000000000000000e+03,1.500000000000000000e+01,4.500000000000000000e+00,3.533004555578145300e-09,5.279797932189467247e-08,4.962447583675384521e-01,-1.647319458425045013e-02,-1.921993307769298553e-02
9.197000000000000000e+03,1.510000038146972656e+01,4.500000000000000000e+00,3.556870575849302440e-09,5.351289900090705487e-08,4.962447285652160645e-01,-1.647315919399261475e-02,-1.921972259879112244e-02
9.198000000000000000e+03,1.519999980926513672e+01,4.500000000000000000e+00,3.580736596120459581e-09,5.423257221082167234e-08,4.962447583675384521e-01,-1.647309958934783936e-02,-1.921930164098739624e-02
9.199000000000000000e+03,1.530000019073486328e+01,4.500000000000000000e+00,3.604602616391616721e-09,5.495700960977956129e-08,4.962448179721832275e-01,-1.647301204502582550e-02,-1.921924203634262085e-02
9.200000000000000000e+03,1.539999961853027344e+01,4.500000000000000000e+00,3.628468636662773861e-09,5.568620053963968530e-08,4.962449073791503906e-01,-1.647289469838142395e-02,-1.921876333653926849e-02
9.201000000000000000e+03,1.550000000000000000e+01,4.500000000000000000e+00,3.652334656933931001e-09,5.642015565854308079e-08,4.962450861930847168e-01,-1.647274009883403778e-02,-1.921862736344337463e-02
9.202000000000000000e+03,1.560000038146972656e+01,4.500000000000000000e+00,3.676200899249693066e-09,5.715887141377606895e-08,4.962452948093414307e-01,-1.647254452109336853e-02,-1.921824365854263306e-02
9.203000000000000000e+03,1.569999980926513672e+01,4.500000000000000000e+00,3.700066697476245281e-09,5.790234069991129218e-08,4.962455928325653076e-01,-1.647230051457881927e-02,-1.921760104596614838e-02
9.204000000000000000e+03,1.580000019073486328e+01,4.500000000000000000e+00,3.723932939792007346e-09,5.865057417508978688e-08,4.962459504604339600e-01,-1.647199876606464386e-02,-1.921725645661354065e-02
9.205000000000000000e+03,1.589999961853027344e+01,4.500000000000000000e+00,3.747798960063164486e-09,5.940356118117051665e-08,4.962463974952697754e-01,-1.647162996232509613e-02,-1.921642757952213287e-02
9.206000000000000000e+03,1.600000000000000000e+01,4.500000000000000000e+00,3.771665202378926551e-09,6.016131237629451789e-08,4.962469339370727539e-01,-1.647118479013442993e-02,-1.921585947275161743e-02
9.207000000000000000e+03,1.610000038146972656e+01,4.500000000000000000e+00,3.795531444694688616e-09,6.092382420774811180e-08,4.962476193904876709e-01,-1.647065207362174988e-02,-1.921495236456394196e-02
9.208000000000000000e+03,1.620000076293945312e+01,4.500000000000000000e+00,3.819397687010450682e-09,6.169109667553129839e-08,4.962483942508697510e-01,-1.647001318633556366e-02,-1.921387016773223877e-02
9.209000000000000000e+03,1.629999923706054688e+01,4.500000000000000000e+00,3.843263485237002897e-09,6.246310846336200484e-08,4.962493479251861572e-01,-1.646925322711467743e-02,-1.921219564974308014e-02
9.210000000000000000e+03,1.639999961853027344e+01,4.500000000000000000e+00,3.867129727552764962e-09,6.323989509837701917e-08,4.962504804134368896e-01,-1.646835170686244965e-02,-1.921104826033115387e-02
9.211000000000000000e+03,1.650000000000000000e+01,4.500000000000000000e+00,3.890995969868527027e-09,6.402144236972162616e-08,4.962517917156219482e-01,-1.646728813648223877e-02,-1.920923031866550446e-02
9.212000000000000000e+03,1.660000038146972656e+01,4.500000000000000000e+00,3.914862656273498942e-09,6.480775027739582583e-08,4.962533712387084961e-01,-1.646603643894195557e-02,-1.920707710087299347e-02
9.213000000000000000e+03,1.670000076293945312e+01,4.500000000000000000e+00,3.938728898589261007e-09,6.559881882139961817e-08,4.962551891803741455e-01,-1.646456308662891388e-02,-1.920453459024429321e-02
9.214000000000000000e+03,1.679999923706054688e+01,4.500000000000000000e+00,3.962595140905023072e-09,6.639463379087828798e-08,4.962573051452636719e-01,-1.646283827722072601e-02,-1.920115388929843903e-02
9.215000000000000000e+03,1.689999961853027344e+01,4.500000000000000000e+00,3.986461827309994987e-09,6.719521650211390806e-08,4.962597787380218506e-01,-1.646081730723381042e-02,-1.919801533222198486e-02
9.216000000000000000e+03,1.700000000000000000e+01,4.500000000000000000e+00,4.010328513714966903e-09,6.800055984967912082e-08,4.962626695632934570e-01,-1.645845547318458557e-02,-1.919388212263584137e-02
9.217000000000000000e+03,1.710000038146972656e+01,4.500000000000000000e+00,4.034195644209148668e-09,6.881066383357392624e-08,4.962659776210784912e-01,-1.645570248365402222e-02,-1.918904669582843781e-02
9.218000000000000000e+03,1.720000076293945312e+01,4.500000000000000000e+00,4.058062330614120583e-09,6.962552845379832434e-08,4.962697625160217285e-01,-1.645249128341674805e-02,-1.918339729309082031e-02
9.219000000000000000e+03,1.729999923706054688e+01,4.500000000000000000e+00,4.081929017019092498e-09,7.044513239407024230e-08,4.962741136550903320e-01,-1.644875109195709229e-02,-1.917643100023269653e-02
9.220000000000000000e+03,1.739999961853027344e+01,4.500000000000000000e+00,4.105796591602484114e-09,7.126951828695382574e-08,4.962790906429290771e-01,-1.644439622759819031e-02,-1.916915923357009888e-02
9.221000000000000000e+03,1.750000000000000000e+01,4.500000000000000000e+00,4.129664166185875729e-09,7.209865771073964424e-08,4.962847232818603516e-01,-1.643932610750198364e-02,-1.916027627885341644e-02
9.222000000000000000e+03,1.760000038146972656e+01,4.500000000000000000e+00,4.153531740769267344e-09,7.293255777085505542e-08,4.962911009788513184e-01,-1.643342524766921997e-02,-1.914998888969421387e-02
9.223000000000000000e+03,1.770000076293945312e+01,4.500000000000000000e+00,4.177399759441868810e-09,7.377121846730005927e-08,4.962982535362243652e-01,-1.642655208706855774e-02,-1.913809776306152344e-02
9.224000000000000000e+03,1.779999923706054688e+01,4.500000000000000000e+00,4.201267778114470275e-09,7.461462558921994059e-08,4.963062107563018799e-01,-1.641853898763656616e-02,-1.912399753928184509e-02
9.225000000000000000e+03,1.789999961853027344e+01,4.500000000000000000e+00,4.225136240876281590e-09,7.546280045289677219e-08,4.963150024414062500e-01,-1.640918664634227753e-02,-1.910859346389770508e-02
9.226000000000000000e+03,1.800000000000000000e+01,4.500000000000000000e+00,4.249005147727302756e-09,7.631574305833055405e-08,4.963245987892150879e-01,-1.639825105667114258e-02,-1.909045875072479248e-02
9.227000000000000000e+03,1.810000038146972656e+01,4.500000000000000000e+00,4.272874054578323921e-09,7.717343919466657098e-08,4.963349401950836182e-01,-1.638544350862503052e-02,-1.906968280673027039e-02
9.228000000000000000e+03,1.820000076293945312e+01,4.500000000000000000e+00,4.296743849607764787e-09,7.803589596733218059e-08,4.963458776473999023e-01,-1.637040823698043823e-02,-1.904594153165817261e-02
9.229000000000000000e+03,1.829999923706054688e+01,4.500000000000000000e+00,4.320613200547995802e-09,7.890309916547266766e-08,4.963571727275848389e-01,-1.635271497070789337e-02,-1.901851966977119446e-02
9.230000000000000000e+03,1.839999961853027344e+01,4.500000000000000000e+00,4.344482995577436668e-09,7.977507010537010501e-08,4.963683784008026123e-01,-1.633184216916561127e-02,-1.898824423551559448e-02
9.231000000000000000e+03,1.850000000000000000e+01,4.500000000000000000e+00,4.368353234696087384e-09,8.065180878702449263e-08,4.963788390159606934e-01,-1.630716770887374878e-02,-1.895367354154586792e-02
9.232000000000000000e+03,1.860000038146972656e+01,4.500000000000000000e+00,4.392223473814738099e-09,8.153330099958111532e-08,4.963875114917755127e-01,-1.627795584499835968e-02,-1.891499757766723633e-02
9.233000000000000000e+03,1.870000076293945312e+01,4.500000000000000000e+00,4.416093268844178965e-09,8.241954674303997308e-08,4.963928461074829102e-01,-1.624337397515773773e-02,-1.887222193181514740e-02
9.234000000000000000e+03,1.879999923706054688e+01,4.500000000000000000e+00,4.439962175695200131e-09,8.331053891197370831e-08,4.963925480842590332e-01,-1.620255596935749054e-02,-1.882534660398960114e-02
9.235000000000000000e+03,1.889999961853027344e+01,4.500000000000000000e+00,4.463830194367801596e-09,8.420630592809175141e-08,4.963832497596740723e-01,-1.615475676953792572e-02,-1.877659186720848083e-02
9.236000000000000000e+03,1.900000000000000000e+01,4.500000000000000000e+00,4.487696436683563661e-09,8.510682647511202958e-08,4.963599741458892822e-01,-1.609974727034568787e-02,-1.872707903385162354e-02
9.237000000000000000e+03,1.910000038146972656e+01,4.500000000000000000e+00,4.511559570374856776e-09,8.601209344760718523e-08,4.963155984878540039e-01,-1.603863947093486786e-02,-1.868154294788837433e-02
9.238000000000000000e+03,1.920000076293945312e+01,4.500000000000000000e+00,4.535418707263261240e-09,8.692212105643193354e-08,4.962401092052459717e-01,-1.597563549876213074e-02,-1.864778809249401093e-02
9.239000000000000000e+03,1.929999923706054688e+01,4.500000000000000000e+00,4.559270294635098253e-09,8.783687377444948652e-08,4.961201250553131104e-01,-1.592154800891876221e-02,-1.863875612616539001e-02
9.240000000000000000e+03,1.939999961853027344e+01,4.500000000000000000e+00,4.583113888401157965e-09,8.875638712879663217e-08,4.959398806095123291e-01,-1.590041257441043854e-02,-1.867685467004776001e-02
9.241000000000000000e+03,1.950000000000000000e+01,4.500000000000000000e+00,4.606945935847761575e-09,8.968063269776394009e-08,4.956862330436706543e-01,-1.596018485724925995e-02,-1.879089325666427612e-02
9.242000000000000000e+03,1.960000038146972656e+01,4.500000000000000000e+00,4.630765992885699234e-09,9.060961048135141027e-08,4.953638911247253418e-01,-1.618525013327598572e-02,-1.901229657232761383e-02
9.243000000000000000e+03,1.970000076293945312e+01,4.500000000000000000e+00,4.654577168139439891e-09,9.154330626870432752e-08,4.950294494628906250e-01,-1.668011769652366638e-02,-1.933843083679676056e-02
9.244000000000000000e+03,1.979999923706054688e+01,4.500000000000000000e+00,4.678388343393180548e-09,9.248170584896797664e-08,4.947904944419860840e-01,-1.750811934471130371e-02,-1.968398876488208771e-02
9.245000000000000000e+03,1.989999961853027344e+01,4.500000000000000000e+00,4.702213729501636408e-09,9.342486606556121842e-08,4.947609603404998779e-01,-1.857138052582740784e-02,-1.985460706055164337e-02
9.246000000000000000e+03,2.000000000000000000e+01,4.500000000000000000e+00,4.726060431892165070e-09,9.437280823476612568e-08,4.949001073837280273e-01,-1.958066038787364960e-02,-1.964481733739376068e-02
9.247000000000000000e+03,0.000000000000000000e+00,4.599999904632568359e+00,1.304202633861596929e-38,-6.331540100700465315e-39,5.609915852546691895e-01,1.682974845170974731e-01,-2.903482317924499512e-01
9.248000000000000000e+03,1.000000014901161194e-01,4.599999904632568359e+00,2.430963590149826103e-11,-3.594787661986842409e-11,5.642372369766235352e-01,1.791162192821502686e-01,-3.079638183116912842e-01
9.249000000000000000e+03,2.000000029802322388e-01,4.599999904632568359e+00,4.837227840503999232e-11,-6.844793482008171281e-11,5.549858808517456055e-01,1.655680686235427856e-01,-2.982738614082336426e-01
9.250000000000000000e+03,3.000000119209289551e-01,4.599999904632568359e+00,7.243045746507803528e-11,-9.658305405446654390e-11,5.480365753173828125e-01,1.427162140607833862e-01,-2.816633880138397217e-01
9.251000000000000000e+03,4.000000059604644775e-01,4.599999904632568359e+00,9.633498859740186049e-11,-1.192439341712869805e-10,5.374814867973327637e-01,1.182875707745552063e-01,-2.579013705253601074e-01
9.252000000000000000e+03,5.000000000000000000e-01,4.599999904632568359e+00,1.197944660136229800e-10,-1.356140894026580668e-10,5.215013027191162109e-01,9.617466479539871216e-02,-2.305584102869033813e-01
9.253000000000000000e+03,6.000000238418579102e-01,4.599999904632568359e+00,1.425616985573086026e-10,-1.452410830493633398e-10,5.013313889503479004e-01,7.739796489477157593e-02,-2.031251788139343262e-01
9.254000000000000000e+03,6.999999880790710449e-01,4.599999904632568359e+00,1.645155539575782200e-10,-1.479286970695881109e-10,4.795829355716705322e-01,6.183914095163345337e-02,-1.774890273809432983e-01
9.255000000000000000e+03,8.000000119209289551e-01,4.599999904632568359e+00,1.856281656165137406e-10,-1.436194496662324127e-10,4.580760598182678223e-01,4.903778061270713806e-02,-1.543138623237609863e-01
9.256000000000000000e+03,8.999999761581420898e-01,4.599999904632568359e+00,2.059297316003849687e-10,-1.323331028091345729e-10,4.378774762153625488e-01,3.848232328891754150e-02,-1.337088197469711304e-01
9.257000000000000000e+03,1.000000000000000000e+00,4.599999904632568359e+00,2.254823411318440662e-10,-1.141320232767029097e-10,4.195227026939392090e-01,2.972654998302459717e-02,-1.155406758189201355e-01
9.258000000000000000e+03,1.100000023841857910e+00,4.599999904632568359e+00,2.443634461446464456e-10,-8.910237131454223913e-11,4.032259881496429443e-01,2.240983769297599792e-02,-9.959156811237335205e-02
9.259000000000000000e+03,1.200000047683715820e+00,4.599999904632568359e+00,2.626558970320047592e-10,-5.734336616658453067e-11,3.890165090560913086e-01,1.625005714595317841e-02,-8.562660217285156250e-02
9.260000000000000000e+03,1.299999952316284180e+00,4.599999904632568359e+00,2.804421694868608483e-10,-1.896101331499977505e-11,3.768208622932434082e-01,1.102865394204854965e-02,-7.342182844877243042e-02
9.261000000000000000e+03,1.399999976158142090e+00,4.599999904632568359e+00,2.978011726106899459e-10,2.593602589640031653e-11,3.665118217468261719e-01,6.576264742761850357e-03,-6.277424097061157227e-02
9.262000000000000000e+03,1.500000000000000000e+00,4.599999904632568359e+00,3.148063476565710062e-10,7.723861827901856714e-11,3.579365909099578857e-01,2.760876202955842018e-03,-5.350348725914955139e-02
9.263000000000000000e+03,1.600000023841857910e+00,4.599999904632568359e+00,3.315249186286450822e-10,1.348390149535916294e-10,3.509334921836853027e-01,-5.213301628828048706e-04,-4.545100033283233643e-02
9.264000000000000000e+03,1.700000047683715820e+00,4.599999904632568359e+00,3.480176424819347858e-10,1.986319442259798507e-10,3.453412652015686035e-01,-3.352875122800469398e-03,-3.847748413681983948e-02
9.265000000000000000e+03,1.799999952316284180e+00,4.599999904632568359e+00,3.643387813667686714e-10,2.685152378223421010e-10,3.410046100616455078e-01,-5.800102837383747101e-03,-3.246041387319564819e-02
9.266000000000000000e+03,1.899999976158142090e+00,4.599999904632568359e+00,3.805365189624154709e-10,3.443907936606649400e-10,3.377769589424133301e-01,-7.916999980807304382e-03,-2.729181200265884399e-02
9.267000000000000000e+03,2.000000000000000000e+00,4.599999904632568359e+00,3.966530159882353246e-10,4.261643260505820763e-10,3.355220258235931396e-01,-9.748017415404319763e-03,-2.287591807544231415e-02
9.268000000000000000e+03,2.099999904632568359e+00,4.599999904632568359e+00,4.127250763374945564e-10,5.137459901938257190e-10,3.341143131256103516e-01,-1.133019011467695236e-02,-1.912771165370941162e-02
9.269000000000000000e+03,2.200000047683715820e+00,4.599999904632568359e+00,4.287845078998486770e-10,6.070507430067095811e-10,3.334391117095947266e-01,-1.269473508000373840e-02,-1.597145199775695801e-02
9.270000000000000000e+03,2.299999952316284180e+00,4.599999904632568359e+00,4.448584278726741559e-10,7.059974826972847950e-10,3.333922028541564941e-01,-1.386823318898677826e-02,-1.333910599350929260e-02
9.271000000000000000e+03,2.400000095367431641e+00,4.599999904632568359e+00,4.609699288948831963e-10,8.105106030775743875e-10,3.338794410228729248e-01,-1.487356144934892654e-02,-1.117003895342350006e-02
9.272000000000000000e+03,2.500000000000000000e+00,4.599999904632568359e+00,4.771382733359530448e-10,9.205179951621289547e-10,3.348160386085510254e-01,-1.573056541383266449e-02,-9.409361518919467926e-03
9.273000000000000000e+03,2.599999904632568359e+00,4.599999904632568359e+00,4.933793373851358410e-10,1.035952990058319756e-09,3.361262083053588867e-01,-1.645661890506744385e-02,-8.008044213056564331e-03
9.274000000000000000e+03,2.700000047683715820e+00,4.599999904632568359e+00,5.097061661629709306e-10,1.156753248743314089e-09,3.377422392368316650e-01,-1.706702262163162231e-02,-6.921795662492513657e-03
9.275000000000000000e+03,2.799999952316284180e+00,4.599999904632568359e+00,5.261288626989824024e-10,1.282859929396806820e-09,3.396040797233581543e-01,-1.757532730698585510e-02,-6.110580638051033020e-03
9.276000000000000000e+03,2.900000095367431641e+00,4.599999904632568359e+00,5.426553650877963264e-10,1.414219408246708554e-09,3.416586220264434814e-01,-1.799360662698745728e-02,-5.538716446608304977e-03
9.277000000000000000e+03,3.000000000000000000e+00,4.599999904632568359e+00,5.592915020002919846e-10,1.550780837078491459e-09,3.438591361045837402e-01,-1.833262853324413300e-02,-5.173712503165006638e-03
9.278000000000000000e+03,3.099999904632568359e+00,4.599999904632568359e+00,5.760412702393580275e-10,1.692498252658936053e-09,3.461647927761077881e-01,-1.860205642879009247e-02,-4.986732732504606247e-03
9.279000000000000000e+03,3.200000047683715820e+00,4.599999904632568359e+00,5.929071678067998619e-10,1.839329244468501656e-09,3.485399484634399414e-01,-1.881054975092411041e-02,-4.951780196279287338e-03
9.280000000000000000e+03,3.299999952316284180e+00,4.599999904632568359e+00,6.098901383921884189e-10,1.991234066522906687e-09,3.509539067745208740e-01,-1.896588504314422607e-02,-5.045439116656780243e-03
9.281000000000000000e+03,3.400000095367431641e+00,4.599999904632568359e+00,6.269903485289773926e-10,2.148177191685363141e-09,3.533802330493927002e-01,-1.907505653798580170e-02,-5.247154738754034042e-03
9.282000000000000000e+03,3.500000000000000000e+00,4.599999904632568359e+00,6.442064659495372325e-10,2.310125202242829801e-09,3.557964563369750977e-01,-1.914433576166629791e-02,-5.538242403417825699e-03
9.283000000000000000e+03,3.599999904632568359e+00,4.599999904632568359e+00,6.615368253193310011e-10,2.477048566262851637e-09,3.581835925579071045e-01,-1.917935535311698914e-02,-5.902461241930723190e-03
9.284000000000000000e+03,3.700000047683715820e+00,4.599999904632568359e+00,6.789788176142508291e-10,2.648920416348232720e-09,3.605257868766784668e-01,-1.918515935540199280e-02,-6.325318478047847748e-03
9.285000000000000000e+03,3.799999952316284180e+00,4.599999904632568359e+00,6.965292786986765350e-10,2.825715217369406673e-09,3.628100752830505371e-01,-1.916625536978244781e-02,-6.793901324272155762e-03
9.286000000000000000e+03,3.900000095367431641e+00,4.599999904632568359e+00,7.141847113700805494e-10,3.007411430999695767e-09,3.650259375572204590e-01,-1.912666857242584229e-02,-7.297224365174770355e-03
9.287000000000000000e+03,4.000000000000000000e+00,4.599999904632568359e+00,7.319411743367254530e-10,3.193988407090841974e-09,3.671649992465972900e-01,-1.906996965408325195e-02,-7.825329899787902832e-03
9.288000000000000000e+03,4.099999904632568359e+00,4.599999904632568359e+00,7.497945042622689016e-10,3.385428160029846367e-09,3.692208826541900635e-01,-1.899933256208896637e-02,-8.369904011487960815e-03
9.289000000000000000e+03,4.199999809265136719e+00,4.599999904632568359e+00,7.677404267880660882e-10,3.581714702605154343e-09,3.711889088153839111e-01,-1.891755685210227966e-02,-8.923605084419250488e-03
9.290000000000000000e+03,4.300000190734863281e+00,4.599999904632568359e+00,7.857745010220185122e-10,3.782834490095865476e-09,3.730658590793609619e-01,-1.882710680365562439e-02,-9.480278939008712769e-03
9.291000000000000000e+03,4.400000095367431641e+00,4.599999904632568359e+00,8.038920640274227480e-10,3.988772867558054713e-09,3.748498260974884033e-01,-1.873013377189636230e-02,-1.003434881567955017e-02
9.292000000000000000e+03,4.500000000000000000e+00,4.599999904632568359e+00,8.220886194010290637e-10,4.199519842984500428e-09,3.765399158000946045e-01,-1.862852089107036591e-02,-1.058163680136203766e-02
9.293000000000000000e+03,4.599999904632568359e+00,4.599999904632568359e+00,8.403597262507389587e-10,4.415064314144956370e-09,3.781362473964691162e-01,-1.852389238774776459e-02,-1.111835520714521408e-02
9.294000000000000000e+03,4.699999809265136719e+00,4.599999904632568359e+00,8.587008881733027010e-10,4.635398287433645237e-09,3.796396851539611816e-01,-1.841764524579048157e-02,-1.164147444069385529e-02
9.295000000000000000e+03,4.800000190734863281e+00,4.599999904632568359e+00,8.771078863212267152e-10,4.860514657423209428e-09,3.810518383979797363e-01,-1.831097900867462158e-02,-1.214864663779735565e-02
9.296000000000000000e+03,4.900000095367431641e+00,4.599999904632568359e+00,8.955762242912612692e-10,5.090404986418661792e-09,3.823747336864471436e-01,-1.820490136742591858e-02,-1.263767760246992111e-02
9.297000000000000000e+03,5.000000000000000000e+00,4.599999904632568359e+00,9.141019607916689438e-10,5.325064389438693979e-09,3.836109638214111328e-01,-1.810026168823242188e-02,-1.310738362371921539e-02
9.298000000000000000e+03,5.099999904632568359e+00,4.599999904632568359e+00,9.326811545307123197e-10,5.564487981501997638e-09,3.847633600234985352e-01,-1.799776032567024231e-02,-1.355661824345588684e-02
9.299000000000000000e+03,5.199999809265136719e+00,4.599999904632568359e+00,9.513099197278052088e-10,5.808670877627264417e-09,3.858351111412048340e-01,-1.789796911180019379e-02,-1.398466806858778000e-02
9.300000000000000000e+03,5.300000190734863281e+00,4.599999904632568359e+00,9.699847591804200420e-10,6.057611301457654918e-09,3.868296146392822266e-01,-1.780134998261928558e-02,-1.439120620489120483e-02
9.301000000000000000e+03,5.400000095367431641e+00,4.599999904632568359e+00,9.887020091525755561e-10,6.311303923922650938e-09,3.877503275871276855e-01,-1.770825497806072235e-02,-1.477579958736896515e-02
9.302000000000000000e+03,5.500000000000000000e+00,4.599999904632568359e+00,1.007458449997500338e-09,6.569746524576203228e-09,3.886008262634277344e-01,-1.761895790696144104e-02,-1.513877697288990021e-02
9.303000000000000000e+03,5.599999904632568359e+00,4.599999904632568359e+00,1.026251084113027900e-09,6.832938215239892088e-09,3.893848359584808350e-01,-1.753364689648151398e-02,-1.548029016703367233e-02
9.304000000000000000e+03,5.699999809265136719e+00,4.599999904632568359e+00,1.045076913896991755e-09,7.100876331378458417e-09,3.901059329509735107e-01,-1.745245233178138733e-02,-1.580073125660419464e-02
9.305000000000000000e+03,5.800000190734863281e+00,4.599999904632568359e+00,1.063933163791830339e-09,7.373561761170321915e-09,3.907677531242370605e-01,-1.737544313073158264e-02,-1.610069908201694489e-02
9.306000000000000000e+03,5.900000095367431641e+00,4.599999904632568359e+00,1.082817169262284551e-09,7.650990063723384083e-09,3.913738429546356201e-01,-1.730263791978359222e-02,-1.638053916394710541e-02
9.307000000000000000e+03,6.000000000000000000e+00,4.599999904632568359e+00,1.101726598840002680e-09,7.933162571305274469e-09,3.919277191162109375e-01,-1.723402179777622223e-02,-1.664121448993682861e-02
9.308000000000000000e+03,6.099999904632568359e+00,4.599999904632568359e+00,1.120659121056633012e-09,8.220078839826783224e-09,3.924327790737152100e-01,-1.716953516006469727e-02,-1.688338816165924072e-02
9.309000000000000000e+03,6.199999809265136719e+00,4.599999904632568359e+00,1.139612626488428759e-09,8.511737981109490647e-09,3.928923010826110840e-01,-1.710909791290760040e-02,-1.710786111652851105e-02
9.310000000000000000e+03,6.300000190734863281e+00,4.599999904632568359e+00,1.158585338778550522e-09,8.808141771510236140e-09,3.933094441890716553e-01,-1.705260574817657471e-02,-1.731554418802261353e-02
9.311000000000000000e+03,6.400000095367431641e+00,4.599999904632568359e+00,1.177575148503251512e-09,9.109287546493760601e-09,3.936872184276580811e-01,-1.699993200600147247e-02,-1.750701479613780975e-02
9.312000000000000000e+03,6.500000000000000000e+00,4.599999904632568359e+00,1.196580612372599717e-09,9.415177082416903431e-09,3.940285742282867432e-01,-1.695093885064125061e-02,-1.768339239060878754e-02
9.313000000000000000e+03,6.599999904632568359e+00,4.599999904632568359e+00,1.215599954029755736e-09,9.725809491101244930e-09,3.943362236022949219e-01,-1.690547727048397064e-02,-1.784544065594673157e-02
9.314000000000000000e+03,6.699999809265136719e+00,4.599999904632568359e+00,1.234631952229392482e-09,1.004118654890362450e-08,3.946128189563751221e-01,-1.686339080333709717e-02,-1.799400337040424347e-02
9.315000000000000000e+03,6.800000190734863281e+00,4.599999904632568359e+00,1.253675274703880405e-09,1.036130914400246184e-08,3.948608040809631348e-01,-1.682451553642749786e-02,-1.812999323010444641e-02
9.316000000000000000e+03,6.900000095367431641e+00,4.599999904632568359e+00,1.272728589185589954e-09,1.068617550004091754e-08,3.950825333595275879e-01,-1.678868755698204041e-02,-1.825395040214061737e-02
9.317000000000000000e+03,7.000000000000000000e+00,4.599999904632568359e+00,1.291790785451496504e-09,1.101578739337583102e-08,3.952802121639251709e-01,-1.675574108958244324e-02,-1.836692728102207184e-02
9.318000000000000000e+03,7.099999904632568359e+00,4.599999904632568359e+00,1.310860975323180355e-09,1.135014571218562196e-08,3.954558670520782471e-01,-1.672551035881042480e-02,-1.846959628164768219e-02
9.319000000000000000e+03,7.199999809265136719e+00,4.599999904632568359e+00,1.329938159599919345e-09,1.168925045647029037e-08,3.956114649772644043e-01,-1.669783145189285278e-02,-1.856268197298049927e-02
9.320000000000000000e+03,7.300000190734863281e+00,4.599999904632568359e+00,1.349021561125596236e-09,1.203310429076509536e-08,3.957487940788269043e-01,-1.667254604399204254e-02,-1.864697225391864777e-02
9.321000000000000000e+03,7.400000095367431641e+00,4.599999904632568359e+00,1.368110291721791327e-09,1.238170455053477781e-08,3.958695232868194580e-01,-1.664949581027030945e-02,-1.872286014258861542e-02
9.322000000000000000e+03,7.500000000000000000e+00,4.599999904632568359e+00,1.387203796276992307e-09,1.273505301213617713e-08,3.959751725196838379e-01,-1.662853360176086426e-02,-1.879124529659748077e-02
9.323000000000000000e+03,7.599999904632568359e+00,4.599999904632568359e+00,1.406301408657384400e-09,1.309315145192613272e-08,3.960672318935394287e-01,-1.660951226949691772e-02,-1.885263994336128235e-02
9.324000000000000000e+03,7.699999809265136719e+00,4.599999904632568359e+00,1.425402573751455293e-09,1.345599898172622488e-08,3.961470425128936768e-01,-1.659229211509227753e-02,-1.890761218965053558e-02
9.325000000000000000e+03,7.800000190734863281e+00,4.599999904632568359e+00,1.444506847469995137e-09,1.382359826607171271e-08,3.962157666683197021e-01,-1.657674089074134827e-02,-1.895677670836448669e-02
9.326000000000000000e+03,7.900000095367431641e+00,4.599999904632568359e+00,1.463613674701491618e-09,1.419594752860575682e-08,3.962746262550354004e-01,-1.656273007392883301e-02,-1.900036633014678955e-02
9.327000000000000000e+03,8.000000000000000000e+00,4.599999904632568359e+00,1.482722722379037350e-09,1.457304765750677689e-08,3.963245749473571777e-01,-1.655014045536518097e-02,-1.903911679983139038e-02
9.328000000000000000e+03,8.100000381469726562e+00,4.599999904632568359e+00,1.501833657435724945e-09,1.495490131731003203e-08,3.963666260242462158e-01,-1.653885841369628906e-02,-1.907347142696380615e-02
9.329000000000000000e+03,8.199999809265136719e+00,4.599999904632568359e+00,1.520945924760042089e-09,1.534150406712342374e-08,3.964016437530517578e-01,-1.652877777814865112e-02,-1.910346746444702148e-02
9.330000000000000000e+03,8.300000190734863281e+00,4.599999904632568359e+00,1.540059635374291247e-09,1.573286390055272932e-08,3.964304029941558838e-01,-1.651979424059391022e-02,-1.913012377917766571e-02
9.331000000000000000e+03,8.399999618530273438e+00,4.599999904632568359e+00,1.559174123144657642e-09,1.612897371217059117e-08,3.964536488056182861e-01,-1.651181653141975403e-02,-1.915306225419044495e-02
9.332000000000000000e+03,8.500000000000000000e+00,4.599999904632568359e+00,1.578289610115746200e-09,1.652984060740436689e-08,3.964720070362091064e-01,-1.650475338101387024e-02,-1.917333714663982391e-02
9.333000000000000000e+03,8.600000381469726562e+00,4.599999904632568359e+00,1.597405652198347070e-09,1.693546103354037768e-08,3.964861333370208740e-01,-1.649852655827999115e-02,-1.919070258736610413e-02
9.334000000000000000e+03,8.699999809265136719e+00,4.599999904632568359e+00,1.616521916325552866e-09,1.734583321422178415e-08,3.964965343475341797e-01,-1.649305596947669983e-02,-1.920543424785137177e-02
9.335000000000000000e+03,8.800000190734863281e+00,4.599999904632568359e+00,1.635638735564270974e-09,1.776096425487594388e-08,3.965037167072296143e-01,-1.648826897144317627e-02,-1.921833492815494537e-02
9.336000000000000000e+03,8.899999618530273438e+00,4.599999904632568359e+00,1.654755443780686619e-09,1.818084705007549928e-08,3.965080976486206055e-01,-1.648410409688949585e-02,-1.922890730202198029e-02
9.337000000000000000e+03,9.000000000000000000e+00,4.599999904632568359e+00,1.673872374041707189e-09,1.860548870524780796e-08,3.965100944042205811e-01,-1.648049615323543549e-02,-1.923809386789798737e-02
9.338000000000000000e+03,9.100000381469726562e+00,4.599999904632568359e+00,1.692989304302727760e-09,1.903488566767919110e-08,3.965100347995758057e-01,-1.647739298641681671e-02,-1.924554631114006042e-02
9.339000000000000000e+03,9.199999809265136719e+00,4.599999904632568359e+00,1.712105901496840943e-09,1.946903616101280932e-08,3.965082466602325439e-01,-1.647473871707916260e-02,-1.925144158303737640e-02
9.340000000000000000e+03,9.300000190734863281e+00,4.599999904632568359e+00,1.731222387668651663e-09,1.990794729067602020e-08,3.965050280094146729e-01,-1.647248864173889160e-02,-1.925648748874664307e-02
9.341000000000000000e+03,9.399999618530273438e+00,4.599999904632568359e+00,1.750338651795857459e-09,2.035161017488462676e-08,3.965006172657012939e-01,-1.647059619426727295e-02,-1.926010288298130035e-02
9.342000000000000000e+03,9.500000000000000000e+00,4.599999904632568359e+00,1.769454693878458329e-09,2.080003547177966539e-08,3.964952528476715088e-01,-1.646902598440647125e-02,-1.926315017044544220e-02
9.343000000000000000e+03,9.600000381469726562e+00,4.599999904632568359e+00,1.788570402894151812e-09,2.125321607593377848e-08,3.964891135692596436e-01,-1.646773703396320343e-02,-1.926520466804504395e-02
9.344000000000000000e+03,9.699999809265136719e+00,4.599999904632568359e+00,1.807685667820635445e-09,2.171115198734696605e-08,3.964823484420776367e-01,-1.646669954061508179e-02,-1.926637254655361176e-02
9.345000000000000000e+03,9.800000190734863281e+00,4.599999904632568359e+00,1.826800710702514152e-09,2.217384853508974629e-08,3.964751362800598145e-01,-1.646588183939456940e-02,-1.926730014383792877e-02
9.346000000000000000e+03,9.899999618530273438e+00,4.599999904632568359e+00,1.845915309495183010e-09,2.264129861373476160e-08,3.964676260948181152e-01,-1.646525599062442780e-02,-1.926734484732151031e-02
9.347000000000000000e+03,1.000000000000000000e+01,4.599999904632568359e+00,1.865029686243246942e-09,2.311351110506620898e-08,3.964598774909973145e-01,-1.646479964256286621e-02,-1.926731504499912262e-02
9.348000000000000000e+03,1.010000038146972656e+01,4.599999904632568359e+00,1.884143507879798562e-09,2.359048068001357024e-08,3.964520394802093506e-01,-1.646448858082294464e-02,-1.926673576235771179e-02
9.349000000000000000e+03,1.019999980926513672e+01,4.599999904632568359e+00,1.903256885427140332e-09,2.407220556222000596e-08,3.964441716670989990e-01,-1.646430417895317078e-02,-1.926565542817115784e-02
9.350000000000000000e+03,1.030000019073486328e+01,4.599999904632568359e+00,1.922370040929877177e-09,2.455869108075603435e-08,3.964363336563110352e-01,-1.646422594785690308e-02,-1.926470547914505005e-02
9.351000000000000000e+03,1.039999961853027344e+01,4.599999904632568359e+00,1.941482752343404172e-09,2.504993190655113722e-08,3.964286148548126221e-01,-1.646424084901809692e-02,-1.926316879689693451e-02
9.352000000000000000e+03,1.050000000000000000e+01,4.599999904632568359e+00,1.960595241712326242e-09,2.554593514503267215e-08,3.964210450649261475e-01,-1.646433398127555847e-02,-1.926185749471187592e-02
9.353000000000000000e+03,1.060000038146972656e+01,4.599999904632568359e+00,1.979707286992038462e-09,2.604669724348696036e-08,3.964136540889739990e-01,-1.646449044346809387e-02,-1.926022954285144806e-02
9.354000000000000000e+03,1.069999980926513672e+01,4.599999904632568359e+00,1.998818888182540832e-09,2.655221287284348364e-08,3.964065015316009521e-01,-1.646470092236995697e-02,-1.925831846892833710e-02
9.355000000000000000e+03,1.080000019073486328e+01,4.599999904632568359e+00,2.017930489373043201e-09,2.706249269124327839e-08,3.963995873928070068e-01,-1.646495424211025238e-02,-1.925673149526119232e-02
9.356000000000000000e+03,1.089999961853027344e+01,4.599999904632568359e+00,2.037041424429730796e-09,2.757752604054530821e-08,3.963929414749145508e-01,-1.646524108946323395e-02,-1.925472170114517212e-02
9.357000000000000000e+03,1.100000000000000000e+01,4.599999904632568359e+00,2.056152137441813466e-09,2.809732357889060950e-08,3.963865637779235840e-01,-1.646555587649345398e-02,-1.925308071076869965e-02
9.358000000000000000e+03,1.110000038146972656e+01,4.599999904632568359e+00,2.075262850453896135e-09,2.862187820085182466e-08,3.963805139064788818e-01,-1.646589115262031555e-02,-1.925124973058700562e-02
9.359000000000000000e+03,1.119999980926513672e+01,4.599999904632568359e+00,2.094372897332164030e-09,2.915118813007211429e-08,3.963747322559356689e-01,-1.646623946726322174e-02,-1.924924366176128387e-02
9.360000000000000000e+03,1.130000019073486328e+01,4.599999904632568359e+00,2.113482944210431924e-09,2.968526224833567539e-08,3.963692486286163330e-01,-1.646659709513187408e-02,-1.924765110015869141e-02
9.361000000000000000e+03,1.139999961853027344e+01,4.599999904632568359e+00,2.132592546999489969e-09,3.022408989750147157e-08,3.963640928268432617e-01,-1.646695844829082489e-02,-1.924571394920349121e-02
9.362000000000000000e+03,1.150000000000000000e+01,4.599999904632568359e+00,2.151702149788548013e-09,3.076767995935369981e-08,3.963592052459716797e-01,-1.646732166409492493e-02,-1.924421079456806183e-02
9.363000000000000000e+03,1.160000038146972656e+01,4.599999904632568359e+00,2.170811530533001132e-09,3.131603065753552073e-08,3.963546156883239746e-01,-1.646768115460872650e-02,-1.924256980419158936e-02
9.364000000000000000e+03,1.169999980926513672e+01,4.599999904632568359e+00,2.189920467188244402e-09,3.186913488661957672e-08,3.963503241539001465e-01,-1.646803691983222961e-02,-1.924079656600952148e-02
9.365000000000000000e+03,1.180000019073486328e+01,4.599999904632568359e+00,2.209029403843487671e-09,3.242700330474690418e-08,3.963463008403778076e-01,-1.646838523447513580e-02,-1.923947408795356750e-02
9.366000000000000000e+03,1.189999961853027344e+01,4.599999904632568359e+00,2.228138118454126015e-09,3.298962525377646671e-08,3.963425457477569580e-01,-1.646872423589229584e-02,-1.923783309757709503e-02
9.367000000000000000e+03,1.200000000000000000e+01,4.599999904632568359e+00,2.247246611020159435e-09,3.355701139184930071e-08,3.963390588760375977e-01,-1.646905206143856049e-02,-1.923664472997188568e-02
9.368000000000000000e+03,1.210000038146972656e+01,4.599999904632568359e+00,2.266355103586192854e-09,3.412915816625172738e-08,3.963357806205749512e-01,-1.646937057375907898e-02,-1.923533715307712555e-02
9.369000000000000000e+03,1.219999980926513672e+01,4.599999904632568359e+00,2.285463374107621348e-09,3.470605847155638912e-08,3.963327705860137939e-01,-1.646967604756355286e-02,-1.923390477895736694e-02
9.370000000000000000e+03,1.230000019073486328e+01,4.599999904632568359e+00,2.304571422584444917e-09,3.528772296590432234e-08,3.963299989700317383e-01,-1.646996662020683289e-02,-1.923292875289916992e-02
9.371000000000000000e+03,1.239999961853027344e+01,4.599999904632568359e+00,2.323679471061268487e-09,3.587413743844081182e-08,3.963274061679840088e-01,-1.647024601697921753e-02,-1.923163607716560364e-02
9.372000000000000000e+03,1.250000000000000000e+01,4.599999904632568359e+00,2.342787519538092056e-09,3.646531965273425158e-08,3.963250219821929932e-01,-1.647051051259040833e-02,-1.923079602420330048e-02
9.373000000000000000e+03,1.260000038146972656e+01,4.599999904632568359e+00,2.361895345970310700e-09,3.706126250335728400e-08,3.963228464126586914e-01,-1.647076196968555450e-02,-1.922982931137084961e-02
9.374000000000000000e+03,1.269999980926513672e+01,4.599999904632568359e+00,2.381002950357924419e-09,3.766195888488255150e-08,3.963208198547363281e-01,-1.647100038826465607e-02,-1.922873593866825104e-02
9.375000000000000000e+03,1.280000019073486328e+01,4.599999904632568359e+00,2.400110554745538138e-09,3.826741590273741167e-08,3.963190019130706787e-01,-1.647122390568256378e-02,-1.922808587551116943e-02
9.376000000000000000e+03,1.289999961853027344e+01,4.599999904632568359e+00,2.419218159133151858e-09,3.887763000420818571e-08,3.963173031806945801e-01,-1.647143438458442688e-02,-1.922711171209812164e-02
9.377000000000000000e+03,1.300000000000000000e+01,4.599999904632568359e+00,2.438325541476160652e-09,3.949260829472223122e-08,3.963157534599304199e-01,-1.647163182497024536e-02,-1.922658085823059082e-02
9.378000000000000000e+03,1.310000038146972656e+01,4.599999904632568359e+00,2.457433145863774371e-09,4.011234366885219060e-08,3.963143527507781982e-01,-1.647181808948516846e-02,-1.922591030597686768e-02
9.379000000000000000e+03,1.319999980926513672e+01,4.599999904632568359e+00,2.476540306162178240e-09,4.073683612659806386e-08,3.963131010532379150e-01,-1.647199131548404694e-02,-1.922510005533695221e-02
9.380000000000000000e+03,1.330000019073486328e+01,4.599999904632568359e+00,2.495647688505187034e-09,4.136608922067352978e-08,3.963119387626647949e-01,-1.647215336561203003e-02,-1.922472380101680756e-02
9.381000000000000000e+03,1.339999961853027344e+01,4.599999904632568359e+00,2.514754848803590903e-09,4.200009939836490958e-08,3.963108956813812256e-01,-1.647230237722396851e-02,-1.922400854527950287e-02
9.382000000000000000e+03,1.350000000000000000e+01,4.599999904632568359e+00,2.533862231146599697e-09,4.263887376509956084e-08,3.963099420070648193e-01,-1.647244207561016083e-02,-1.922371983528137207e-02
9.383000000000000000e+03,1.360000038146972656e+01,4.599999904632568359e+00,2.552969391445003566e-09,4.328240521545012598e-08,3.963091075420379639e-01,-1.647257059812545776e-02,-1.922328211367130280e-02
9.384000000000000000e+03,1.369999980926513672e+01,4.599999904632568359e+00,2.572076551743407435e-09,4.393069019670292619e-08,3.963083326816558838e-01,-1.647268980741500854e-02,-1.922268979251384735e-02
9.385000000000000000e+03,1.380000019073486328e+01,4.599999904632568359e+00,2.591183712041811305e-09,4.458374291971267667e-08,3.963076472282409668e-01,-1.647279970347881317e-02,-1.922251656651496887e-02
9.386000000000000000e+03,1.389999961853027344e+01,4.599999904632568359e+00,2.610290650295610249e-09,4.524154562091098342e-08,3.963070213794708252e-01,-1.647289842367172241e-02,-1.922199316322803497e-02
9.387000000000000000e+03,1.400000000000000000e+01,4.599999904632568359e+00,2.629397810594014118e-09,4.590411606386624044e-08,3.963064849376678467e-01,-1.647298969328403473e-02,-1.922188512980937958e-02
9.388000000000000000e+03,1.410000038146972656e+01,4.599999904632568359e+00,2.648504970892417987e-09,4.657144359043741133e-08,3.963059782981872559e-01,-1.647307164967060089e-02,-1.922161132097244263e-02
9.389000000000000000e+03,1.419999980926513672e+01,4.599999904632568359e+00,2.667611909146216931e-09,4.724352464791081729e-08,3.963055610656738281e-01,-1.647314615547657013e-02,-1.922116987407207489e-02
9.390000000000000000e+03,1.430000019073486328e+01,4.599999904632568359e+00,2.686718847400015875e-09,4.792036989442749473e-08,3.963051736354827881e-01,-1.647321134805679321e-02,-1.922113448381423950e-02
9.391000000000000000e+03,1.439999961853027344e+01,4.599999904632568359e+00,2.705825785653814819e-09,4.860197222456008603e-08,3.963048458099365234e-01,-1.647326722741127014e-02,-1.922073587775230408e-02
9.392000000000000000e+03,1.450000000000000000e+01,4.599999904632568359e+00,2.724932945952218688e-09,4.928833519102227001e-08,3.963045775890350342e-01,-1.647331565618515015e-02,-1.922073587775230408e-02
9.393000000000000000e+03,1.460000038146972656e+01,4.599999904632568359e+00,2.744039884206017632e-09,4.997945879381404666e-08,3.963043391704559326e-01,-1.647335290908813477e-02,-1.922055892646312714e-02
9.394000000000000000e+03,1.469999980926513672e+01,4.599999904632568359e+00,2.763146822459816576e-09,5.067533592750805838e-08,3.963041305541992188e-01,-1.647338271141052246e-02,-1.922019943594932556e-02
9.395000000000000000e+03,1.480000019073486328e+01,4.599999904632568359e+00,2.782253760713615520e-09,5.137598080295902037e-08,3.963039815425872803e-01,-1.647339947521686554e-02,-1.922022923827171326e-02
9.396000000000000000e+03,1.489999961853027344e+01,4.599999904632568359e+00,2.801360698967414464e-09,5.208137210388485983e-08,3.963038623332977295e-01,-1.647340692579746246e-02,-1.921987533569335938e-02
9.397000000000000000e+03,1.500000000000000000e+01,4.599999904632568359e+00,2.820467637221213408e-09,5.279153469928132836e-08,3.963037729263305664e-01,-1.647340133786201477e-02,-1.921990513801574707e-02
9.398000000000000000e+03,1.510000038146972656e+01,4.599999904632568359e+00,2.839574575475012352e-09,5.350645437829371076e-08,3.963037431240081787e-01,-1.647338084876537323e-02,-1.921973563730716705e-02
9.399000000000000000e+03,1.519999980926513672e+01,4.599999904632568359e+00,2.858681513728811296e-09,5.422612758820832823e-08,3.963037431240081787e-01,-1.647334359586238861e-02,-1.921935752034187317e-02
9.400000000000000000e+03,1.530000019073486328e+01,4.599999904632568359e+00,2.877788451982610241e-09,5.495056498716621718e-08,3.963038027286529541e-01,-1.647328957915306091e-02,-1.921934448182582855e-02
9.401000000000000000e+03,1.539999961853027344e+01,4.599999904632568359e+00,2.896895390236409185e-09,5.567975591702634119e-08,3.963039219379425049e-01,-1.647321134805679321e-02,-1.921891979873180389e-02
9.402000000000000000e+03,1.550000000000000000e+01,4.599999904632568359e+00,2.916002328490208129e-09,5.641371103592973668e-08,3.963040709495544434e-01,-1.647311076521873474e-02,-1.921884156763553619e-02
9.403000000000000000e+03,1.560000038146972656e+01,4.599999904632568359e+00,2.935109488788611998e-09,5.715242679116272484e-08,3.963043093681335449e-01,-1.647298038005828857e-02,-1.921852491796016693e-02
9.404000000000000000e+03,1.569999980926513672e+01,4.599999904632568359e+00,2.954216204997806017e-09,5.789589252458426927e-08,3.963046371936798096e-01,-1.647281646728515625e-02,-1.921795494854450226e-02
9.405000000000000000e+03,1.580000019073486328e+01,4.599999904632568359e+00,2.973323365296209886e-09,5.864412955247644277e-08,3.963050246238708496e-01,-1.647261343896389008e-02,-1.921769604086875916e-02
9.406000000000000000e+03,1.589999961853027344e+01,4.599999904632568359e+00,2.992430303550008830e-09,5.939711300584349374e-08,3.963055312633514404e-01,-1.647236384451389313e-02,-1.921696588397026062e-02
9.407000000000000000e+03,1.600000000000000000e+01,4.599999904632568359e+00,3.011537463848412699e-09,6.015486775368117378e-08,3.963061571121215820e-01,-1.647206209599971771e-02,-1.921650953590869904e-02
9.408000000000000000e+03,1.610000038146972656e+01,4.599999904632568359e+00,3.030644402102211643e-09,6.091737958513476769e-08,3.963069021701812744e-01,-1.647169701755046844e-02,-1.921573467552661896e-02
9.409000000000000000e+03,1.620000076293945312e+01,4.599999904632568359e+00,3.049751784445220437e-09,6.168464494749059668e-08,3.963078260421752930e-01,-1.647125929594039917e-02,-1.921480335295200348e-02
9.410000000000000000e+03,1.629999923706054688e+01,4.599999904632568359e+00,3.068858500654414456e-09,6.245666384074866073e-08,3.963089287281036377e-01,-1.647073589265346527e-02,-1.921330392360687256e-02
9.411000000000000000e+03,1.639999961853027344e+01,4.599999904632568359e+00,3.087965882997423250e-09,6.323345047576367506e-08,3.963102698326110840e-01,-1.647011190652847290e-02,-1.921235397458076477e-02
9.412000000000000000e+03,1.650000000000000000e+01,4.599999904632568359e+00,3.107073043295827119e-09,6.401499774710828206e-08,3.963118791580200195e-01,-1.646937243640422821e-02,-1.921076700091362000e-02
9.413000000000000000e+03,1.660000038146972656e+01,4.599999904632568359e+00,3.126180647683440839e-09,6.480130565478248172e-08,3.963137865066528320e-01,-1.646849885582923889e-02,-1.920888014137744904e-02
9.414000000000000000e+03,1.670000076293945312e+01,4.599999904632568359e+00,3.145288030026449633e-09,6.559237419878627406e-08,3.963160514831542969e-01,-1.646746881306171417e-02,-1.920663751661777496e-02
9.415000000000000000e+03,1.679999923706054688e+01,4.599999904632568359e+00,3.164395412369458427e-09,6.638818206283758627e-08,3.963187038898468018e-01,-1.646625436842441559e-02,-1.920359954237937927e-02
9.416000000000000000e+03,1.689999961853027344e+01,4.599999904632568359e+00,3.183503016757072146e-09,6.718877187950056395e-08,3.963218629360198975e-01,-1.646482758224010468e-02,-1.920084841549396515e-02
9.417000000000000000e+03,1.700000000000000000e+01,4.599999904632568359e+00,3.202611065233895715e-09,6.799411522706577671e-08,3.963255584239959717e-01,-1.646315306425094604e-02,-1.919715665280818939e-02
9.418000000000000000e+03,1.710000038146972656e+01,4.599999904632568359e+00,3.221719113710719284e-09,6.880421921096058213e-08,3.963298797607421875e-01,-1.646118983626365662e-02,-1.919281296432018280e-02
9.419000000000000000e+03,1.720000076293945312e+01,4.599999904632568359e+00,3.240827384232147779e-09,6.961908383118498023e-08,3.963349163532257080e-01,-1.645888946950435638e-02,-1.918771676719188690e-02
9.420000000000000000e+03,1.729999923706054688e+01,4.599999904632568359e+00,3.259935654753576273e-09,7.043868777145689819e-08,3.963407874107360840e-01,-1.645619608461856842e-02,-1.918135955929756165e-02
9.421000000000000000e+03,1.739999961853027344e+01,4.599999904632568359e+00,3.279044369364214617e-09,7.126307366434048163e-08,3.963475823402404785e-01,-1.645304076373577118e-02,-1.917476020753383636e-02
9.422000000000000000e+03,1.750000000000000000e+01,4.599999904632568359e+00,3.298153528064062812e-09,7.209221308812630014e-08,3.963554799556732178e-01,-1.644934527575969696e-02,-1.916660740971565247e-02
9.423000000000000000e+03,1.760000038146972656e+01,4.599999904632568359e+00,3.317262908808515931e-09,7.292611314824171131e-08,3.963645696640014648e-01,-1.644501276314258575e-02,-1.915710419416427612e-02
9.424000000000000000e+03,1.770000076293945312e+01,4.599999904632568359e+00,3.336372955686783826e-09,7.376477384468671517e-08,3.963750004768371582e-01,-1.643992960453033447e-02,-1.914603821933269501e-02
9.425000000000000000e+03,1.779999923706054688e+01,4.599999904632568359e+00,3.355483002565051720e-09,7.460818096660659648e-08,3.963869810104370117e-01,-1.643395237624645233e-02,-1.913278549909591675e-02
9.426000000000000000e+03,1.789999961853027344e+01,4.599999904632568359e+00,3.374593937621739315e-09,7.545635583028342808e-08,3.964006006717681885e-01,-1.642690598964691162e-02,-1.911822147667407990e-02
9.427000000000000000e+03,1.800000000000000000e+01,4.599999904632568359e+00,3.393705538812241684e-09,7.630929843571720994e-08,3.964160680770874023e-01,-1.641858182847499847e-02,-1.910087466239929199e-02
9.428000000000000000e+03,1.810000038146972656e+01,4.599999904632568359e+00,3.412817806136558829e-09,7.716699457205322688e-08,3.964335322380065918e-01,-1.640871167182922363e-02,-1.908075995743274689e-02
9.429000000000000000e+03,1.820000076293945312e+01,4.599999904632568359e+00,3.431930739594690749e-09,7.802945134471883648e-08,3.964531123638153076e-01,-1.639696210622787476e-02,-1.905744895339012146e-02
9.430000000000000000e+03,1.829999923706054688e+01,4.599999904632568359e+00,3.451044339186637444e-09,7.889665454285932356e-08,3.964748978614807129e-01,-1.638290658593177795e-02,-1.903007552027702332e-02
9.431000000000000000e+03,1.839999961853027344e+01,4.599999904632568359e+00,3.470159049001608764e-09,7.976862548275676090e-08,3.964988291263580322e-01,-1.636600680649280548e-02,-1.899923942983150482e-02
9.432000000000000000e+03,1.850000000000000000e+01,4.599999904632568359e+00,3.489274869039604710e-09,8.064536416441114852e-08,3.965247869491577148e-01,-1.634557731449604034e-02,-1.896317675709724426e-02
9.433000000000000000e+03,1.860000038146972656e+01,4.599999904632568359e+00,3.508391577256020355e-09,8.152685637696777121e-08,3.965523838996887207e-01,-1.632073335349559784e-02,-1.892160251736640930e-02
9.434000000000000000e+03,1.870000076293945312e+01,4.599999904632568359e+00,3.527509173650855701e-09,8.241310922585398657e-08,3.965807855129241943e-01,-1.629034616053104401e-02,-1.887384057044982910e-02
9.435000000000000000e+03,1.879999923706054688e+01,4.599999904632568359e+00,3.546626992090295971e-09,8.330410139478772180e-08,3.966086804866790771e-01,-1.625299453735351562e-02,-1.881889812648296356e-02
9.436000000000000000e+03,1.889999961853027344e+01,4.599999904632568359e+00,3.565745920752760867e-09,8.419986841090576490e-08,3.966336548328399658e-01,-1.620693318545818329e-02,-1.875758357346057892e-02
9.437000000000000000e+03,1.900000000000000000e+01,4.599999904632568359e+00,3.584865071459830688e-09,8.510038895792604308e-08,3.966518044471740723e-01,-1.615016721189022064e-02,-1.868902705609798431e-02
9.438000000000000000e+03,1.910000038146972656e+01,4.599999904632568359e+00,3.603983111943875883e-09,8.600566303584855632e-08,3.966566920280456543e-01,-1.608076505362987518e-02,-1.861526630818843842e-02
9.439000000000000000e+03,1.920000076293945312e+01,4.599999904632568359e+00,3.623099376071081679e-09,8.691569064467330463e-08,3.966378569602966309e-01,-1.599784754216670990e-02,-1.854076422750949860e-02
9.440000000000000000e+03,1.929999923706054688e+01,4.599999904632568359e+00,3.642210977261584048e-09,8.783045046811821521e-08,3.965786993503570557e-01,-1.590422540903091431e-02,-1.847517862915992737e-02
9.441000000000000000e+03,1.939999961853027344e+01,4.599999904632568359e+00,3.661315695069333742e-09,8.874997092789271846e-08,3.964533209800720215e-01,-1.581292413175106049e-02,-1.844028010964393616e-02
9.442000000000000000e+03,1.950000000000000000e+01,4.599999904632568359e+00,3.680408866557627334e-09,8.967422360228738398e-08,3.962250351905822754e-01,-1.576266996562480927e-02,-1.847412623465061188e-02
9.443000000000000000e+03,1.960000038146972656e+01,4.599999904632568359e+00,3.699485384700551549e-09,9.060320138587485417e-08,3.958534300327301025e-01,-1.584843918681144714e-02,-1.864234730601310730e-02
9.444000000000000000e+03,1.970000076293945312e+01,4.599999904632568359e+00,3.718543473141266986e-09,9.153688296237305622e-08,3.953353762626647949e-01,-1.627185568213462830e-02,-1.902207545936107635e-02
9.445000000000000000e+03,1.979999923706054688e+01,4.599999904632568359e+00,3.737591569574760797e-09,9.247524701549991732e-08,3.948458433151245117e-01,-1.724103093147277832e-02,-1.956752873957157135e-02
9.446000000000000000e+03,1.989999961853027344e+01,4.599999904632568359e+00,3.756650990283105784e-09,9.341833617781958310e-08,3.946229517459869385e-01,-1.875597983598709106e-02,-1.999981328845024109e-02
9.447000000000000000e+03,2.000000000000000000e+01,4.599999904632568359e+00,3.775741497236140276e-09,9.436620729275091435e-08,3.948097825050354004e-01,-2.028738893568515778e-02,-1.983247697353363037e-02
9.448000000000000000e+03,0.000000000000000000e+00,4.699999809265136719e+00,1.252094649816446443e-38,-6.081674571526707183e-39,5.308243632316589355e-01,1.592473089694976807e-01,-2.862851023674011230e-01
9.449000000000000000e+03,1.000000014901161194e-01,4.699999809265136719e+00,2.300238992336556265e-11,-3.544482415906990980e-11,5.343070626258850098e-01,1.708562523126602173e-01,-2.968436479568481445e-01
9.450000000000000000e+03,2.000000029802322388e-01,4.699999809265136719e+00,4.574786383049200822e-11,-6.884488812364253363e-11,5.221473574638366699e-01,1.483081281185150146e-01,-2.909669876098632812e-01
9.451000000000000000e+03,3.000000119209289551e-01,4.699999809265136719e+00,6.828271975622968171e-11,-9.823564878219670504e-11,5.085941553115844727e-01,1.178738027811050415e-01,-2.708878517150878906e-01
9.452000000000000000e+03,4.000000059604644775e-01,4.699999809265136719e+00,9.014994306610901731e-11,-1.218702361249768273e-10,4.864461719989776611e-01,9.078162908554077148e-02,-2.408509552478790283e-01
9.453000000000000000e+03,5.000000000000000000e-01,4.699999809265136719e+00,1.108317049247631303e-10,-1.388261311463523384e-10,4.550341367721557617e-01,6.905711442232131958e-02,-2.093430906534194946e-01
9.454000000000000000e+03,6.000000238418579102e-01,4.699999809265136719e+00,1.301510565987484824e-10,-1.487788225951192089e-10,4.213389456272125244e-01,5.210898071527481079e-02,-1.806270480155944824e-01
9.455000000000000000e+03,6.999999880790710449e-01,4.699999809265136719e+00,1.481149508597567888e-10,-1.516294034775711452e-10,3.889313042163848877e-01,3.896472975611686707e-02,-1.554904729127883911e-01
9.456000000000000000e+03,8.000000119209289551e-01,4.699999809265136719e+00,1.648203379334134411e-10,-1.473886845904104348e-10,3.594142496585845947e-01,2.867015264928340912e-02,-1.338114887475967407e-01
9.457000000000000000e+03,8.999999761581420898e-01,4.699999809265136719e+00,1.803999172267367612e-10,-1.361186302561989692e-10,3.333213925361633301e-01,2.050019055604934692e-02,-1.151750609278678894e-01
9.458000000000000000e+03,1.000000000000000000e+00,4.699999809265136719e+00,1.949958944313934239e-10,-1.179073921830919858e-10,3.106927573680877686e-01,1.392501220107078552e-02,-9.914615750312805176e-02
9.459000000000000000e+03,1.100000023841857910e+00,4.699999809265136719e+00,2.087472694700664988e-10,-9.285665292235734114e-11,2.913481295108795166e-01,8.564537391066551208e-03,-8.533650636672973633e-02
9.460000000000000000e+03,1.200000047683715820e+00,4.699999809265136719e+00,2.217841743590298620e-10,-6.107483963013748962e-11,2.750183343887329102e-01,4.144580569118261337e-03,-7.341889292001724243e-02
9.461000000000000000e+03,1.299999952316284180e+00,4.699999809265136719e+00,2.342254723508574443e-10,-2.267325216465110316e-11,2.614072859287261963e-01,4.650916962418705225e-04,-6.312207132577896118e-02
9.462000000000000000e+03,1.399999976158142090e+00,4.699999809265136719e+00,2.461782444562743422e-10,2.223658236710779335e-11,2.502211034297943115e-01,-2.622083295136690140e-03,-5.422176793217658997e-02
9.463000000000000000e+03,1.500000000000000000e+00,4.699999809265136719e+00,2.577377755663690095e-10,7.354419850891247279e-11,2.411815673112869263e-01,-5.228418391197919846e-03,-4.653133824467658997e-02
9.464000000000000000e+03,1.600000023841857910e+00,4.699999809265136719e+00,2.689883871198617271e-10,1.311414726812287768e-10,2.340313047170639038e-01,-7.439143024384975433e-03,-3.989448398351669312e-02
9.465000000000000000e+03,1.700000047683715820e+00,4.699999809265136719e+00,2.800041865036462241e-10,1.949233274789463621e-10,2.285355329513549805e-01,-9.320467710494995117e-03,-3.417894989252090454e-02
9.466000000000000000e+03,1.799999952316284180e+00,4.699999809265136719e+00,2.908498442089069158e-10,2.647881358619486036e-10,2.244816869497299194e-01,-1.092461962252855301e-02,-2.927176654338836670e-02
9.467000000000000000e+03,1.899999976158142090e+00,4.699999809265136719e+00,3.015815652762654508e-10,3.406385729043392985e-10,2.216782867908477783e-01,-1.229341886937618256e-02,-2.507570572197437286e-02
9.468000000000000000e+03,2.000000000000000000e+00,4.699999809265136719e+00,3.122478386963223329e-10,4.223811578274450085e-10,2.199534326791763306e-01,-1.346082426607608795e-02,-2.150613069534301758e-02
9.469000000000000000e+03,2.099999904632568359e+00,4.699999809265136719e+00,3.228902145657741585e-10,5.099268785002664117e-10,2.191532403230667114e-01,-1.445478200912475586e-02,-1.848906278610229492e-02
9.470000000000000000e+03,2.200000047683715820e+00,4.699999809265136719e+00,3.335440257323796232e-10,6.031916632842637682e-10,2.191402018070220947e-01,-1.529859192669391632e-02,-1.595943607389926910e-02
9.471000000000000000e+03,2.299999952316284180e+00,4.699999809265136719e+00,3.442390261731986811e-10,7.020951042768786010e-10,2.197918146848678589e-01,-1.601189002394676208e-02,-1.385936141014099121e-02
9.472000000000000000e+03,2.400000095367431641e+00,4.699999809265136719e+00,3.550001126395585516e-10,8.065624279574024058e-10,2.209990769624710083e-01,-1.661141775548458099e-02,-1.213775388896465302e-02
9.473000000000000000e+03,2.500000000000000000e+00,4.699999809265136719e+00,3.658476577239611061e-10,9.165222469853517850e-10,2.226653695106506348e-01,-1.711157150566577911e-02,-1.074862107634544373e-02
9.474000000000000000e+03,2.599999904632568359e+00,4.699999809265136719e+00,3.767982592606244907e-10,1.031908447579610311e-09,2.247051894664764404e-01,-1.752484031021595001e-02,-9.651189669966697693e-03
9.475000000000000000e+03,2.700000047683715820e+00,4.699999809265136719e+00,3.878650178812392824e-10,1.152659190317706361e-09,2.270431518554687500e-01,-1.786214113235473633e-02,-8.808783255517482758e-03
9.476000000000000000e+03,2.799999952316284180e+00,4.699999809265136719e+00,3.990580088597539543e-10,1.278716244001998348e-09,2.296130657196044922e-01,-1.813305541872978210e-02,-8.188362233340740204e-03
9.477000000000000000e+03,2.900000095367431641e+00,4.699999809265136719e+00,4.103847262015847264e-10,1.410026317927304262e-09,2.323569506406784058e-01,-1.834605634212493896e-02,-7.760650478303432465e-03
9.478000000000000000e+03,3.000000000000000000e+00,4.699999809265136719e+00,4.218503046882204899e-10,1.546539118990608586e-09,2.352243810892105103e-01,-1.850864291191101074e-02,-7.498998660594224930e-03
9.479000000000000000e+03,3.099999904632568359e+00,4.699999809265136719e+00,4.334578806997058109e-10,1.688208794980994298e-09,2.381716072559356689e-01,-1.862748526036739349e-02,-7.379886228591203690e-03
9.480000000000000000e+03,3.200000047683715820e+00,4.699999809265136719e+00,4.452090363038507803e-10,1.834993268445828107e-09,2.411609739065170288e-01,-1.870852522552013397e-02,-7.382132112979888916e-03
9.481000000000000000e+03,3.299999952316284180e+00,4.699999809265136719e+00,4.571036604783529356e-10,1.986852904423130894e-09,2.441603094339370728e-01,-1.875704526901245117e-02,-7.486674003303050995e-03
9.482000000000000000e+03,3.400000095367431641e+00,4.699999809265136719e+00,4.691406152446120359e-10,2.143752508843022042e-09,2.471422553062438965e-01,-1.877776905894279480e-02,-7.676875684410333633e-03
9.483000000000000000e+03,3.500000000000000000e+00,4.699999809265136719e+00,4.813175413787007528e-10,2.305658552970157871e-09,2.500838935375213623e-01,-1.877488940954208374e-02,-7.937571033835411072e-03
9.484000000000000000e+03,3.599999904632568359e+00,4.699999809265136719e+00,4.936314690340282141e-10,2.472541726916688276e-09,2.529661357402801514e-01,-1.875214837491512299e-02,-8.255665190517902374e-03
9.485000000000000000e+03,3.700000047683715820e+00,4.699999809265136719e+00,5.060784569188570003e-10,2.644375385330022254e-09,2.557734251022338867e-01,-1.871286518871784210e-02,-8.619467727839946747e-03
9.486000000000000000e+03,3.799999952316284180e+00,4.699999809265136719e+00,5.186542306745423048e-10,2.821133771035988502e-09,2.584931850433349609e-01,-1.865997910499572754e-02,-9.018555283546447754e-03
9.487000000000000000e+03,3.900000095367431641e+00,4.699999809265136719e+00,5.313540163420782392e-10,3.002795789797119141e-09,2.611155807971954346e-01,-1.859609223902225494e-02,-9.444138966500759125e-03
9.488000000000000000e+03,4.000000000000000000e+00,4.699999809265136719e+00,5.441725403620978341e-10,3.189340125331341369e-09,2.636331319808959961e-01,-1.852349005639553070e-02,-9.888194501399993896e-03
9.489000000000000000e+03,4.099999904632568359e+00,4.699999809265136719e+00,5.571046401975365825e-10,3.380749236114866108e-09,2.660404145717620850e-01,-1.844418235123157501e-02,-1.034410018473863602e-02
9.490000000000000000e+03,4.199999809265136719e+00,4.699999809265136719e+00,5.701447092221201274e-10,3.577007134936138755e-09,2.683338224887847900e-01,-1.835992187261581421e-02,-1.080598589032888412e-02
9.491000000000000000e+03,4.300000190734863281e+00,4.699999809265136719e+00,5.832872518318765742e-10,3.778100055029653959e-09,2.705112695693969727e-01,-1.827223598957061768e-02,-1.126897241920232773e-02
9.492000000000000000e+03,4.400000095367431641e+00,4.699999809265136719e+00,5.965266058893803347e-10,3.984013563496091592e-09,2.725720405578613281e-01,-1.818243227899074554e-02,-1.172857638448476791e-02
9.493000000000000000e+03,4.500000000000000000e+00,4.699999809265136719e+00,6.098572757906595143e-10,4.194736558105205404e-09,2.745164632797241211e-01,-1.809164881706237793e-02,-1.218155212700366974e-02
9.494000000000000000e+03,4.599999904632568359e+00,4.699999809265136719e+00,6.232737659317422185e-10,4.410259268894378692e-09,2.763459086418151855e-01,-1.800083927810192108e-02,-1.262489799410104752e-02
9.495000000000000000e+03,4.699999809265136719e+00,4.699999809265136719e+00,6.367706917309590153e-10,4.630573258168624307e-09,2.780624926090240479e-01,-1.791081763803958893e-02,-1.305624376982450485e-02
9.496000000000000000e+03,4.800000190734863281e+00,4.699999809265136719e+00,6.503428906512453977e-10,4.855670976411374795e-09,2.796689867973327637e-01,-1.782226189970970154e-02,-1.347377989441156387e-02
9.497000000000000000e+03,4.900000095367431641e+00,4.699999809265136719e+00,6.639852556666880901e-10,5.085543985927643007e-09,2.811686694622039795e-01,-1.773572526872158051e-02,-1.387575734406709671e-02
9.498000000000000000e+03,5.000000000000000000e+00,4.699999809265136719e+00,6.776929017959787416e-10,5.320187401736120592e-09,2.825652956962585449e-01,-1.765166409313678741e-02,-1.426133513450622559e-02
9.499000000000000000e+03,5.099999904632568359e+00,4.699999809265136719e+00,6.914611661024139266e-10,5.559595894766289348e-09,2.838628292083740234e-01,-1.757043227553367615e-02,-1.462963875383138657e-02
9.500000000000000000e+03,5.199999809265136719e+00,4.699999809265136719e+00,7.052856076938951446e-10,5.803765468215260626e-09,2.850655615329742432e-01,-1.749230735003948212e-02,-1.498015411198139191e-02
9.501000000000000000e+03,5.300000190734863281e+00,4.699999809265136719e+00,7.191620077229288199e-10,6.052693901636985174e-09,2.861779034137725830e-01,-1.741749607026576996e-02,-1.531269587576389313e-02
9.502000000000000000e+03,5.400000095367431641e+00,4.699999809265136719e+00,7.330861473420213770e-10,6.306374977782525093e-09,2.872043848037719727e-01,-1.734613999724388123e-02,-1.562691479921340942e-02
9.503000000000000000e+03,5.500000000000000000e+00,4.699999809265136719e+00,7.470544183263427840e-10,6.564807364384250832e-09,2.881495058536529541e-01,-1.727833040058612823e-02,-1.592318341135978699e-02
9.504000000000000000e+03,5.599999904632568359e+00,4.699999809265136719e+00,7.610630459176093154e-10,6.827989729174532840e-09,2.890178859233856201e-01,-1.721410453319549561e-02,-1.620165444910526276e-02
9.505000000000000000e+03,5.699999809265136719e+00,4.699999809265136719e+00,7.751087549578983271e-10,7.095919407618112018e-09,2.898139655590057373e-01,-1.715347170829772949e-02,-1.646269299089908600e-02
9.506000000000000000e+03,5.800000190734863281e+00,4.699999809265136719e+00,7.891883813115896373e-10,7.368596843804198215e-09,2.905421853065490723e-01,-1.709640398621559143e-02,-1.670684292912483215e-02
9.507000000000000000e+03,5.900000095367431641e+00,4.699999809265136719e+00,8.032988163542142956e-10,7.646018929108322482e-09,2.912068665027618408e-01,-1.704283989965915680e-02,-1.693436875939369202e-02
9.508000000000000000e+03,6.000000000000000000e+00,4.699999809265136719e+00,8.174373955505132017e-10,7.928185219441274967e-09,2.918122112751007080e-01,-1.699270494282245636e-02,-1.714613847434520721e-02
9.509000000000000000e+03,6.099999904632568359e+00,4.699999809265136719e+00,8.316014543652272550e-10,8.215095270713845821e-09,2.923622727394104004e-01,-1.694590039551258087e-02,-1.734270341694355011e-02
9.510000000000000000e+03,6.199999809265136719e+00,4.699999809265136719e+00,8.457886613300047429e-10,8.506749971104454744e-09,2.928609549999237061e-01,-1.690231449902057648e-02,-1.752474345266819000e-02
9.511000000000000000e+03,6.300000190734863281e+00,4.699999809265136719e+00,8.599968515099476463e-10,8.803149320613101736e-09,2.933119535446166992e-01,-1.686182618141174316e-02,-1.769304089248180389e-02
9.512000000000000000e+03,6.400000095367431641e+00,4.699999809265136719e+00,8.742238044590067148e-10,9.104290654704527697e-09,2.937188744544982910e-01,-1.682430319488048553e-02,-1.784802973270416260e-02
9.513000000000000000e+03,6.500000000000000000e+00,4.699999809265136719e+00,8.884676883091913169e-10,9.410175749735572026e-09,2.940850853919982910e-01,-1.678960770368576050e-02,-1.799069344997406006e-02
9.514000000000000000e+03,6.599999904632568359e+00,4.699999809265136719e+00,9.027267822148132836e-10,9.720805493884654425e-09,2.944137752056121826e-01,-1.675760000944137573e-02,-1.812165416777133942e-02
9.515000000000000000e+03,6.699999809265136719e+00,4.699999809265136719e+00,9.169994763524869086e-10,1.003617988715177489e-08,2.947080135345458984e-01,-1.672814041376113892e-02,-1.824161224067211151e-02
9.516000000000000000e+03,6.800000190734863281e+00,4.699999809265136719e+00,9.312843274322801790e-10,1.035629981771535313e-08,2.949706315994262695e-01,-1.670108363032341003e-02,-1.835133880376815796e-02
9.517000000000000000e+03,6.900000095367431641e+00,4.699999809265136719e+00,9.455798366531098509e-10,1.068116439739696943e-08,2.952042818069458008e-01,-1.667628996074199677e-02,-1.845123246312141418e-02
9.518000000000000000e+03,7.000000000000000000e+00,4.699999809265136719e+00,9.598849493031025304e-10,1.101077451437504351e-08,2.954115271568298340e-01,-1.665361970663070679e-02,-1.854220777750015259e-02
9.519000000000000000e+03,7.099999904632568359e+00,4.699999809265136719e+00,9.741984996480823611e-10,1.134513105682799505e-08,2.955946624279022217e-01,-1.663293875753879547e-02,-1.862480491399765015e-02
9.520000000000000000e+03,7.199999809265136719e+00,4.699999809265136719e+00,9.885194884873271803e-10,1.168423402475582407e-08,2.957559227943420410e-01,-1.661411300301551819e-02,-1.869962178170681000e-02
9.521000000000000000e+03,7.300000190734863281e+00,4.699999809265136719e+00,1.002847027642417288e-09,1.202808697087220935e-08,2.958973050117492676e-01,-1.659701764583587646e-02,-1.876731775701045990e-02
9.522000000000000000e+03,7.400000095367431641e+00,4.699999809265136719e+00,1.017180117912630521e-09,1.237668634246347210e-08,2.960207164287567139e-01,-1.658152975142002106e-02,-1.882817037403583527e-02
9.523000000000000000e+03,7.500000000000000000e+00,4.699999809265136719e+00,1.031518093164152106e-09,1.273003391588645172e-08,2.961278855800628662e-01,-1.656753011047840118e-02,-1.888296008110046387e-02
9.524000000000000000e+03,7.599999904632568359e+00,4.699999809265136719e+00,1.045860287263167265e-09,1.308813057931956791e-08,2.962204217910766602e-01,-1.655490510165691376e-02,-1.893209666013717651e-02
9.525000000000000000e+03,7.699999809265136719e+00,4.699999809265136719e+00,1.060206145098163688e-09,1.345097810911966008e-08,2.962998151779174805e-01,-1.654355227947235107e-02,-1.897603832185268402e-02
9.526000000000000000e+03,7.800000190734863281e+00,4.699999809265136719e+00,1.074555111557629061e-09,1.381857739346514791e-08,2.963674664497375488e-01,-1.653337106108665466e-02,-1.901530660688877106e-02
9.527000000000000000e+03,7.900000095367431641e+00,4.699999809265136719e+00,1.088906631530051072e-09,1.419092576782077231e-08,2.964245676994323730e-01,-1.652426458895206451e-02,-1.905004121363162994e-02
9.528000000000000000e+03,8.000000000000000000e+00,4.699999809265136719e+00,1.103260260926219871e-09,1.456802589672179238e-08,2.964723408222198486e-01,-1.651614345610141754e-02,-1.908089034259319305e-02
9.529000000000000000e+03,8.100000381469726562e+00,4.699999809265136719e+00,1.117615777701530533e-09,1.494987955652504752e-08,2.965117692947387695e-01,-1.650892384350299835e-02,-1.910821720957756042e-02
9.530000000000000000e+03,8.199999809265136719e+00,4.699999809265136719e+00,1.131972515722168282e-09,1.533648230633843923e-08,2.965438663959503174e-01,-1.650252565741539001e-02,-1.913198083639144897e-02
9.531000000000000000e+03,8.300000190734863281e+00,4.699999809265136719e+00,1.146330697032738044e-09,1.572784213976774481e-08,2.965694367885589600e-01,-1.649687811732292175e-02,-1.915313303470611572e-02
9.532000000000000000e+03,8.399999618530273438e+00,4.699999809265136719e+00,1.160689433454820119e-09,1.612395017502876726e-08,2.965893447399139404e-01,-1.649190858006477356e-02,-1.917122490704059601e-02
9.533000000000000000e+03,8.500000000000000000e+00,4.699999809265136719e+00,1.175049058055321893e-09,1.652481707026254298e-08,2.966042459011077881e-01,-1.648755744099617004e-02,-1.918725483119487762e-02
9.534000000000000000e+03,8.600000381469726562e+00,4.699999809265136719e+00,1.189409126745033518e-09,1.693043927275539318e-08,2.966148257255554199e-01,-1.648376695811748505e-02,-1.920091360807418823e-02
9.535000000000000000e+03,8.699999809265136719e+00,4.699999809265136719e+00,1.203769306457047605e-09,1.734081145343679964e-08,2.966216504573822021e-01,-1.648047752678394318e-02,-1.921242848038673401e-02
9.536000000000000000e+03,8.800000190734863281e+00,4.699999809265136719e+00,1.218129819235969080e-09,1.775594249409095937e-08,2.966252267360687256e-01,-1.647764258086681366e-02,-1.922255195677280426e-02
9.537000000000000000e+03,8.899999618530273438e+00,4.699999809265136719e+00,1.232490109970285630e-09,1.817582351293367537e-08,2.966260612010955811e-01,-1.647521369159221649e-02,-1.923074014484882355e-02
9.538000000000000000e+03,9.000000000000000000e+00,4.699999809265136719e+00,1.246850511726904642e-09,1.860046694446282345e-08,2.966245710849761963e-01,-1.647314801812171936e-02,-1.923790015280246735e-02
9.539000000000000000e+03,9.100000381469726562e+00,4.699999809265136719e+00,1.261210691438918730e-09,1.902986390689420659e-08,2.966211140155792236e-01,-1.647140830755233765e-02,-1.924364268779754639e-02
9.540000000000000000e+03,9.199999809265136719e+00,4.699999809265136719e+00,1.275570427061722967e-09,1.946401440022782481e-08,2.966160178184509277e-01,-1.646995916962623596e-02,-1.924810558557510376e-02
9.541000000000000000e+03,9.300000190734863281e+00,4.699999809265136719e+00,1.289930051662224741e-09,1.990292552989103569e-08,2.966095805168151855e-01,-1.646876521408557892e-02,-1.925197057425975800e-02
9.542000000000000000e+03,9.399999618530273438e+00,4.699999809265136719e+00,1.304289121151214204e-09,2.034658841409964225e-08,2.966021001338958740e-01,-1.646779850125312805e-02,-1.925462484359741211e-02
9.543000000000000000e+03,9.500000000000000000e+00,4.699999809265136719e+00,1.318647857573296278e-09,2.079501371099468088e-08,2.965937554836273193e-01,-1.646703109145164490e-02,-1.925690844655036926e-02
9.544000000000000000e+03,9.600000381469726562e+00,4.699999809265136719e+00,1.333006260928470965e-09,2.124819609150563338e-08,2.965847551822662354e-01,-1.646644063293933868e-02,-1.925836876034736633e-02
9.545000000000000000e+03,9.699999809265136719e+00,4.699999809265136719e+00,1.347364109172133340e-09,2.170613022656198154e-08,2.965753078460693359e-01,-1.646600291132926941e-02,-1.925909332931041718e-02
9.546000000000000000e+03,9.800000190734863281e+00,4.699999809265136719e+00,1.361721513326585864e-09,2.216882677430476178e-08,2.965655624866485596e-01,-1.646569743752479553e-02,-1.925970427691936493e-02
9.547000000000000000e+03,9.899999618530273438e+00,4.699999809265136719e+00,1.376078362369526076e-09,2.263627862930661649e-08,2.965556085109710693e-01,-1.646550558507442474e-02,-1.925954595208168030e-02
9.548000000000000000e+03,1.000000000000000000e+01,4.699999809265136719e+00,1.390434878345558900e-09,2.310849112063806388e-08,2.965455651283264160e-01,-1.646541245281696320e-02,-1.925941184163093567e-02
9.549000000000000000e+03,1.010000038146972656e+01,4.699999809265136719e+00,1.404790839210079412e-09,2.358546069558542513e-08,2.965355813503265381e-01,-1.646540500223636627e-02,-1.925881393253803253e-02
9.550000000000000000e+03,1.019999980926513672e+01,4.699999809265136719e+00,1.419146244963087611e-09,2.406718557779186085e-08,2.965256869792938232e-01,-1.646547019481658936e-02,-1.925778016448020935e-02
9.551000000000000000e+03,1.030000019073486328e+01,4.699999809265136719e+00,1.433501317649188422e-09,2.455367109632788925e-08,2.965159714221954346e-01,-1.646559312939643860e-02,-1.925693638622760773e-02
9.552000000000000000e+03,1.039999961853027344e+01,4.699999809265136719e+00,1.447855835223776921e-09,2.504491192212299211e-08,2.965064644813537598e-01,-1.646576449275016785e-02,-1.925555430352687836e-02
9.553000000000000000e+03,1.050000000000000000e+01,4.699999809265136719e+00,1.462210019731458033e-09,2.554091516060452705e-08,2.964972257614135742e-01,-1.646597683429718018e-02,-1.925443671643733978e-02
9.554000000000000000e+03,1.060000038146972656e+01,4.699999809265136719e+00,1.476563871172231757e-09,2.604167903541565465e-08,2.964883148670196533e-01,-1.646622084081172943e-02,-1.925303786993026733e-02
9.555000000000000000e+03,1.069999980926513672e+01,4.699999809265136719e+00,1.490917056479190705e-09,2.654719466477217793e-08,2.964797317981719971e-01,-1.646649278700351715e-02,-1.925138011574745178e-02
9.556000000000000000e+03,1.080000019073486328e+01,4.699999809265136719e+00,1.505270019741544729e-09,2.705747448317197268e-08,2.964714765548706055e-01,-1.646678149700164795e-02,-1.925006322562694550e-02
9.557000000000000000e+03,1.089999961853027344e+01,4.699999809265136719e+00,1.519622538914688903e-09,2.757250605611716310e-08,2.964636385440826416e-01,-1.646708138287067413e-02,-1.924833841621875763e-02
9.558000000000000000e+03,1.100000000000000000e+01,4.699999809265136719e+00,1.533974725020925689e-09,2.809230359446246439e-08,2.964561283588409424e-01,-1.646739244461059570e-02,-1.924699172377586365e-02
9.559000000000000000e+03,1.110000038146972656e+01,4.699999809265136719e+00,1.548326689082557550e-09,2.861685999278051895e-08,2.964490354061126709e-01,-1.646770909428596497e-02,-1.924546249210834503e-02
9.560000000000000000e+03,1.119999980926513672e+01,4.699999809265136719e+00,1.562678209054979561e-09,2.914616992200080858e-08,2.964423000812530518e-01,-1.646802760660648346e-02,-1.924375817179679871e-02
9.561000000000000000e+03,1.130000019073486328e+01,4.699999809265136719e+00,1.577029506982796647e-09,2.968024226390753029e-08,2.964359521865844727e-01,-1.646834425628185272e-02,-1.924246549606323242e-02
9.562000000000000000e+03,1.139999961853027344e+01,4.699999809265136719e+00,1.591380360821403883e-09,3.021906991307332646e-08,2.964299917221069336e-01,-1.646865531802177429e-02,-1.924082636833190918e-02
9.563000000000000000e+03,1.150000000000000000e+01,4.699999809265136719e+00,1.605731214660011119e-09,3.076265997492555471e-08,2.964243888854980469e-01,-1.646896265447139740e-02,-1.923961564898490906e-02
9.564000000000000000e+03,1.160000038146972656e+01,4.699999809265136719e+00,1.620081735431710968e-09,3.131101067310737562e-08,2.964191436767578125e-01,-1.646926254034042358e-02,-1.923826150596141815e-02
9.565000000000000000e+03,1.169999980926513672e+01,4.699999809265136719e+00,1.634431812114200966e-09,3.186411490219143161e-08,2.964142262935638428e-01,-1.646955311298370361e-02,-1.923676766455173492e-02
9.566000000000000000e+03,1.180000019073486328e+01,4.699999809265136719e+00,1.648781888796690964e-09,3.242198332031875907e-08,2.964096665382385254e-01,-1.646983437240123749e-02,-1.923571154475212097e-02
9.567000000000000000e+03,1.189999961853027344e+01,4.699999809265136719e+00,1.663131632412273575e-09,3.298460882206200040e-08,2.964054048061370850e-01,-1.647010259330272675e-02,-1.923432759940624237e-02
9.568000000000000000e+03,1.200000000000000000e+01,4.699999809265136719e+00,1.677481376027856186e-09,3.355199496013483440e-08,2.964014410972595215e-01,-1.647036150097846985e-02,-1.923338882625102997e-02
9.569000000000000000e+03,1.210000038146972656e+01,4.699999809265136719e+00,1.691830897598833872e-09,3.412413818182358227e-08,2.963978052139282227e-01,-1.647060923278331757e-02,-1.923231780529022217e-02
9.570000000000000000e+03,1.219999980926513672e+01,4.699999809265136719e+00,1.706180197125206632e-09,3.470103848712824401e-08,2.963944077491760254e-01,-1.647084392607212067e-02,-1.923111081123352051e-02
9.571000000000000000e+03,1.230000019073486328e+01,4.699999809265136719e+00,1.720529385629276931e-09,3.528270298147617723e-08,2.963913083076477051e-01,-1.647106744349002838e-02,-1.923034712672233582e-02
9.572000000000000000e+03,1.239999961853027344e+01,4.699999809265136719e+00,1.734878352088742304e-09,3.586912100672634551e-08,2.963884174823760986e-01,-1.647127605974674225e-02,-1.922925561666488647e-02
9.573000000000000000e+03,1.250000000000000000e+01,4.699999809265136719e+00,1.749227318548207677e-09,3.646030322101978527e-08,2.963857948780059814e-01,-1.647147536277770996e-02,-1.922860741615295410e-02
9.574000000000000000e+03,1.260000038146972656e+01,4.699999809265136719e+00,1.763576173985370588e-09,3.705624251892913890e-08,2.963833808898925781e-01,-1.647166348993778229e-02,-1.922782137989997864e-02
9.575000000000000000e+03,1.269999980926513672e+01,4.699999809265136719e+00,1.777924807377928573e-09,3.765693890045440639e-08,2.963811457157135010e-01,-1.647184044122695923e-02,-1.922689378261566162e-02
9.576000000000000000e+03,1.280000019073486328e+01,4.699999809265136719e+00,1.792273440770486559e-09,3.826239947102294536e-08,2.963791191577911377e-01,-1.647200435400009155e-02,-1.922640204429626465e-02
9.577000000000000000e+03,1.289999961853027344e+01,4.699999809265136719e+00,1.806621852118439620e-09,3.887261001978004060e-08,2.963773012161254883e-01,-1.647215709090232849e-02,-1.922557502985000610e-02
9.578000000000000000e+03,1.300000000000000000e+01,4.699999809265136719e+00,1.820970374488695143e-09,3.948758831029408611e-08,2.963756024837493896e-01,-1.647230051457881927e-02,-1.922518014907836914e-02
9.579000000000000000e+03,1.310000038146972656e+01,4.699999809265136719e+00,1.835318785836648203e-09,4.010732723713772430e-08,2.963740825653076172e-01,-1.647243462502956390e-02,-1.922463811933994293e-02
9.580000000000000000e+03,1.319999980926513672e+01,4.699999809265136719e+00,1.849666975139996339e-09,4.073181614216991875e-08,2.963727116584777832e-01,-1.647255942225456238e-02,-1.922394521534442902e-02
9.581000000000000000e+03,1.330000019073486328e+01,4.699999809265136719e+00,1.864015386487949399e-09,4.136107278895906347e-08,2.963714599609375000e-01,-1.647267490625381470e-02,-1.922367699444293976e-02
9.582000000000000000e+03,1.339999961853027344e+01,4.699999809265136719e+00,1.878363464768995073e-09,4.199507941393676447e-08,2.963703274726867676e-01,-1.647278107702732086e-02,-1.922306232154369354e-02
9.583000000000000000e+03,1.350000000000000000e+01,4.699999809265136719e+00,1.892711765094645671e-09,4.263385378067141573e-08,2.963693141937255859e-01,-1.647287979722023010e-02,-1.922286860644817352e-02
9.584000000000000000e+03,1.360000038146972656e+01,4.699999809265136719e+00,1.907059843375691344e-09,4.327738523102198087e-08,2.963683903217315674e-01,-1.647297106683254242e-02,-1.922251656651496887e-02
9.585000000000000000e+03,1.369999980926513672e+01,4.699999809265136719e+00,1.921407699612132092e-09,4.392567376498845988e-08,2.963675856590270996e-01,-1.647305488586425781e-02,-1.922200433909893036e-02
9.586000000000000000e+03,1.380000019073486328e+01,4.699999809265136719e+00,1.935755999937782690e-09,4.457872293528453156e-08,2.963668406009674072e-01,-1.647313125431537628e-02,-1.922190375626087189e-02
9.587000000000000000e+03,1.389999961853027344e+01,4.699999809265136719e+00,1.950103856174223438e-09,4.523652918919651711e-08,2.963661849498748779e-01,-1.647320017218589783e-02,-1.922144554555416107e-02
9.588000000000000000e+03,1.400000000000000000e+01,4.699999809265136719e+00,1.964451934455269111e-09,4.589909607943809533e-08,2.963656187057495117e-01,-1.647326350212097168e-02,-1.922139897942543030e-02
9.589000000000000000e+03,1.410000038146972656e+01,4.699999809265136719e+00,1.978799790691709859e-09,4.656642715872294502e-08,2.963650822639465332e-01,-1.647332124412059784e-02,-1.922118291258811951e-02
9.590000000000000000e+03,1.419999980926513672e+01,4.699999809265136719e+00,1.993147646928150607e-09,4.723850821619635099e-08,2.963646352291107178e-01,-1.647337339818477631e-02,-1.922079361975193024e-02
9.591000000000000000e+03,1.430000019073486328e+01,4.699999809265136719e+00,2.007495725209196280e-09,4.791535346271302842e-08,2.963642477989196777e-01,-1.647341810166835785e-02,-1.922080665826797485e-02
9.592000000000000000e+03,1.439999961853027344e+01,4.699999809265136719e+00,2.021843581445637028e-09,4.859695224013194093e-08,2.963638901710510254e-01,-1.647345721721649170e-02,-1.922045275568962097e-02
9.593000000000000000e+03,1.450000000000000000e+01,4.699999809265136719e+00,2.036191437682077776e-09,4.928331875930780370e-08,2.963635921478271484e-01,-1.647349074482917786e-02,-1.922049745917320251e-02
9.594000000000000000e+03,1.460000038146972656e+01,4.699999809265136719e+00,2.050539293918518524e-09,4.997444236209958035e-08,2.963633239269256592e-01,-1.647352054715156555e-02,-1.922036148607730865e-02
9.595000000000000000e+03,1.469999980926513672e+01,4.699999809265136719e+00,2.064887150154959272e-09,5.067031949579359207e-08,2.963631153106689453e-01,-1.647354289889335632e-02,-1.922004111111164093e-02
9.596000000000000000e+03,1.480000019073486328e+01,4.699999809265136719e+00,2.079235006391400020e-09,5.137096081853087526e-08,2.963629364967346191e-01,-1.647355966269969940e-02,-1.922011002898216248e-02
9.597000000000000000e+03,1.489999961853027344e+01,4.699999809265136719e+00,2.093582862627840768e-09,5.207635567217039352e-08,2.963627874851226807e-01,-1.647356711328029633e-02,-1.921979524195194244e-02
9.598000000000000000e+03,1.500000000000000000e+01,4.699999809265136719e+00,2.107930718864281516e-09,5.278651471485318325e-08,2.963626980781555176e-01,-1.647356711328029633e-02,-1.921986602246761322e-02
9.599000000000000000e+03,1.510000038146972656e+01,4.699999809265136719e+00,2.122278575100722264e-09,5.350143439386556565e-08,2.963626384735107422e-01,-1.647355966269969940e-02,-1.921973936259746552e-02
9.600000000000000000e+03,1.519999980926513672e+01,4.699999809265136719e+00,2.136626431337163012e-09,5.422110760378018313e-08,2.963626384735107422e-01,-1.647354289889335632e-02,-1.921940967440605164e-02
9.601000000000000000e+03,1.530000019073486328e+01,4.699999809265136719e+00,2.150974287573603760e-09,5.494554500273807207e-08,2.963626980781555176e-01,-1.647351495921611786e-02,-1.921944878995418549e-02
9.602000000000000000e+03,1.539999961853027344e+01,4.699999809265136719e+00,2.165322143810044508e-09,5.567473593259819609e-08,2.963627874851226807e-01,-1.647347211837768555e-02,-1.921907998621463776e-02
9.603000000000000000e+03,1.550000000000000000e+01,4.699999809265136719e+00,2.179670000046485256e-09,5.640869105150159157e-08,2.963629364967346191e-01,-1.647341623902320862e-02,-1.921906694769859314e-02
9.604000000000000000e+03,1.560000038146972656e+01,4.699999809265136719e+00,2.194017856282926004e-09,5.714740680673457973e-08,2.963631451129913330e-01,-1.647334359586238861e-02,-1.921882666647434235e-02
9.605000000000000000e+03,1.569999980926513672e+01,4.699999809265136719e+00,2.208365712519366753e-09,5.789087609286980296e-08,2.963634729385375977e-01,-1.647325046360492706e-02,-1.921834237873554230e-02
9.606000000000000000e+03,1.580000019073486328e+01,4.699999809265136719e+00,2.222713568755807501e-09,5.863910956804829766e-08,2.963638603687286377e-01,-1.647313311696052551e-02,-1.921818591654300690e-02
9.607000000000000000e+03,1.589999961853027344e+01,4.699999809265136719e+00,2.237061424992248249e-09,5.939209657412902743e-08,2.963643670082092285e-01,-1.647298596799373627e-02,-1.921757124364376068e-02
9.608000000000000000e+03,1.600000000000000000e+01,4.699999809265136719e+00,2.251409503273293922e-09,6.014984421653934987e-08,2.963650226593017578e-01,-1.647280715405941010e-02,-1.921725459396839142e-02
9.609000000000000000e+03,1.610000038146972656e+01,4.699999809265136719e+00,2.265757581554339595e-09,6.091235604799294379e-08,2.963658273220062256e-01,-1.647259294986724854e-02,-1.921663992106914520e-02
9.610000000000000000e+03,1.620000076293945312e+01,4.699999809265136719e+00,2.280105659835385268e-09,6.167962851577613037e-08,2.963668107986450195e-01,-1.647233404219150543e-02,-1.921589858829975128e-02
9.611000000000000000e+03,1.629999923706054688e+01,4.699999809265136719e+00,2.294453516071826016e-09,6.245164740903419442e-08,2.963680326938629150e-01,-1.647201739251613617e-02,-1.921461708843708038e-02
9.612000000000000000e+03,1.639999961853027344e+01,4.699999809265136719e+00,2.308801594352871689e-09,6.322843404404920875e-08,2.963694930076599121e-01,-1.647163927555084229e-02,-1.921392418444156647e-02
9.613000000000000000e+03,1.650000000000000000e+01,4.699999809265136719e+00,2.323149894678522287e-09,6.400998131539381575e-08,2.963712811470031738e-01,-1.647118851542472839e-02,-1.921263895928859711e-02
9.614000000000000000e+03,1.660000038146972656e+01,4.699999809265136719e+00,2.337498417048777810e-09,6.479628922306801542e-08,2.963733971118927002e-01,-1.647065766155719757e-02,-1.921110227704048157e-02
9.615000000000000000e+03,1.670000076293945312e+01,4.699999809265136719e+00,2.351846717374428408e-09,6.558735776707180776e-08,2.963759601116180420e-01,-1.647002808749675751e-02,-1.920926570892333984e-02
9.616000000000000000e+03,1.679999923706054688e+01,4.699999809265136719e+00,2.366195017700079006e-09,6.638316563112311997e-08,2.963790297508239746e-01,-1.646927557885646820e-02,-1.920669525861740112e-02
9.617000000000000000e+03,1.689999961853027344e+01,4.699999809265136719e+00,2.380543984159544380e-09,6.718375544778609765e-08,2.963826656341552734e-01,-1.646838709712028503e-02,-1.920448429882526398e-02
9.618000000000000000e+03,1.700000000000000000e+01,4.699999809265136719e+00,2.394892950619009753e-09,6.798909879535131040e-08,2.963869869709014893e-01,-1.646733842790126801e-02,-1.920141652226448059e-02
9.619000000000000000e+03,1.710000038146972656e+01,4.699999809265136719e+00,2.409242139123080051e-09,6.879920277924611582e-08,2.963921129703521729e-01,-1.646610721945762634e-02,-1.919779181480407715e-02
9.620000000000000000e+03,1.720000076293945312e+01,4.699999809265136719e+00,2.423591549671755274e-09,6.961406739947051392e-08,2.963981628417968750e-01,-1.646465435624122620e-02,-1.919351518154144287e-02
9.621000000000000000e+03,1.729999923706054688e+01,4.699999809265136719e+00,2.437940960220430497e-09,7.043367133974243188e-08,2.964052855968475342e-01,-1.646293886005878448e-02,-1.918809115886688232e-02
9.622000000000000000e+03,1.739999961853027344e+01,4.699999809265136719e+00,2.452291258947525421e-09,7.125805012719865772e-08,2.964136302471160889e-01,-1.646091230213642120e-02,-1.918254978954792023e-02
9.623000000000000000e+03,1.750000000000000000e+01,4.699999809265136719e+00,2.466641779719225269e-09,7.208719665641183383e-08,2.964234054088592529e-01,-1.645852439105510712e-02,-1.917559839785099030e-02
9.624000000000000000e+03,1.760000038146972656e+01,4.699999809265136719e+00,2.480992744580134968e-09,7.292109671652724501e-08,2.964348495006561279e-01,-1.645570620894432068e-02,-1.916744560003280640e-02
9.625000000000000000e+03,1.770000076293945312e+01,4.699999809265136719e+00,2.495344597619464366e-09,7.375975741297224886e-08,2.964482009410858154e-01,-1.645237021148204803e-02,-1.915788836777210236e-02
9.626000000000000000e+03,1.779999923706054688e+01,4.699999809265136719e+00,2.509696672703398690e-09,7.460315742946477258e-08,2.964636981487274170e-01,-1.644840836524963379e-02,-1.914630644023418427e-02
9.627000000000000000e+03,1.789999961853027344e+01,4.699999809265136719e+00,2.524049635965752714e-09,7.545133939856896177e-08,2.964816987514495850e-01,-1.644369214773178101e-02,-1.913357898592948914e-02
9.628000000000000000e+03,1.800000000000000000e+01,4.699999809265136719e+00,2.538403709451131363e-09,7.630427489857538603e-08,2.965025603771209717e-01,-1.643805950880050659e-02,-1.911822892725467682e-02
9.629000000000000000e+03,1.810000038146972656e+01,4.699999809265136719e+00,2.552758893159534637e-09,7.716197814033876057e-08,2.965266406536102295e-01,-1.643129996955394745e-02,-1.910024695098400116e-02
9.630000000000000000e+03,1.820000076293945312e+01,4.699999809265136719e+00,2.567115187090962536e-09,7.802443491300437017e-08,2.965543568134307861e-01,-1.642314344644546509e-02,-1.907916367053985596e-02
9.631000000000000000e+03,1.829999923706054688e+01,4.699999809265136719e+00,2.581472591245415060e-09,7.889163100571749965e-08,2.965861856937408447e-01,-1.641323231160640717e-02,-1.905402727425098419e-02
9.632000000000000000e+03,1.839999961853027344e+01,4.699999809265136719e+00,2.595831771756706985e-09,7.976360905104229460e-08,2.966226041316986084e-01,-1.640110462903976440e-02,-1.902531646192073822e-02
9.633000000000000000e+03,1.850000000000000000e+01,4.699999809265136719e+00,2.610192950669443235e-09,8.064034773269668221e-08,2.966640889644622803e-01,-1.638614200055599213e-02,-1.899105496704578400e-02
9.634000000000000000e+03,1.860000038146972656e+01,4.699999809265136719e+00,2.624555905939018885e-09,8.152183994525330490e-08,2.967110276222229004e-01,-1.636751368641853333e-02,-1.895062252879142761e-02
9.635000000000000000e+03,1.870000076293945312e+01,4.699999809265136719e+00,2.638921081654643785e-09,8.240809279413952027e-08,2.967638075351715088e-01,-1.634407974779605865e-02,-1.890280097723007202e-02
9.636000000000000000e+03,1.879999923706054688e+01,4.699999809265136719e+00,2.653288255771713011e-09,8.329908496307325549e-08,2.968224287033081055e-01,-1.631427370011806488e-02,-1.884574443101882935e-02
9.637000000000000000e+03,1.889999961853027344e+01,4.699999809265136719e+00,2.667658316468646262e-09,8.419485197919129860e-08,2.968864440917968750e-01,-1.627594046294689178e-02,-1.877891086041927338e-02
9.638000000000000000e+03,1.900000000000000000e+01,4.699999809265136719e+00,2.682030819656233689e-09,8.509537252621157677e-08,2.969544827938079834e-01,-1.622610725462436676e-02,-1.869927160441875458e-02
9.639000000000000000e+03,1.910000038146972656e+01,4.699999809265136719e+00,2.696405765334475291e-09,8.600065370956144761e-08,2.970232963562011719e-01,-1.616073586046695709e-02,-1.860544085502624512e-02
9.640000000000000000e+03,1.920000076293945312e+01,4.699999809265136719e+00,2.710782265324951368e-09,8.691068131838619593e-08,2.970862686634063721e-01,-1.607458479702472687e-02,-1.849650964140892029e-02
9.641000000000000000e+03,1.929999923706054688e+01,4.699999809265136719e+00,2.725159209404637295e-09,8.782544824725846411e-08,2.971303462982177734e-01,-1.596173644065856934e-02,-1.837402768433094025e-02
9.642000000000000000e+03,1.939999961853027344e+01,4.699999809265136719e+00,2.739534377127483822e-09,8.874497581246032496e-08,2.971301972866058350e-01,-1.581855490803718567e-02,-1.824875548481941223e-02
9.643000000000000000e+03,1.950000000000000000e+01,4.699999809265136719e+00,2.753902661467577673e-09,8.966923559228234808e-08,2.970373630523681641e-01,-1.565451733767986298e-02,-1.814836077392101288e-02
9.644000000000000000e+03,1.960000038146972656e+01,4.699999809265136719e+00,2.768256068819141547e-09,9.059822048129717587e-08,2.967631518840789795e-01,-1.552875433117151260e-02,-1.814677566289901733e-02
9.645000000000000000e+03,1.970000076293945312e+01,4.699999809265136719e+00,2.782583052862719342e-09,9.153190916322273551e-08,2.961710691452026367e-01,-1.564797013998031616e-02,-1.840517297387123108e-02
9.646000000000000000e+03,1.979999923706054688e+01,4.699999809265136719e+00,2.796876952260163307e-09,9.247023768921280862e-08,2.951881885528564453e-01,-1.662498898804187775e-02,-1.916534267365932465e-02
9.647000000000000000e+03,1.989999961853027344e+01,4.699999809265136719e+00,2.811171073702212198e-09,9.341323448097682558e-08,2.945444583892822266e-01,-1.877234317362308502e-02,-2.008338645100593567e-02
9.648000000000000000e+03,2.000000000000000000e+01,4.699999809265136719e+00,2.825502498637888493e-09,9.436097769821572001e-08,2.945352792739868164e-01,-2.140763774514198303e-02,-2.020005881786346436e-02
9.649000000000000000e+03,0.000000000000000000e+00,4.800000190734863281e+00,1.426357324242952045e-38,-5.369568323119978943e-39,5.399927496910095215e-01,1.619978249073028564e-01,-2.843984663486480713e-01
9.650000000000000000e+03,1.000000014901161194e-01,4.800000190734863281e+00,2.339968670217462687e-11,-3.521124017358268077e-11,5.416098237037658691e-01,1.673881560564041138e-01,-2.811895608901977539e-01
9.651000000000000000e+03,2.000000029802322388e-01,4.800000190734863281e+00,4.637694742126718950e-11,-7.032279619734183029e-11,5.200127959251403809e-01,1.249678432941436768e-01,-2.785122990608215332e-01
9.652000000000000000e+03,3.000000119209289551e-01,4.800000190734863281e+00,6.862005408336813161e-11,-1.011183983767871553e-10,4.933450222015380859e-01,8.746591955423355103e-02,-2.460090667009353638e-01
9.653000000000000000e+03,4.000000059604644775e-01,4.800000190734863281e+00,8.866699735543548400e-11,-1.252656867123391748e-10,4.391148090362548828e-01,6.043018028140068054e-02,-2.070134282112121582e-01
9.654000000000000000e+03,5.000000000000000000e-01,4.800000190734863281e+00,1.063254692623694098e-10,-1.423413609202839325e-10,3.831671774387359619e-01,4.113081097602844238e-02,-1.743152588605880737e-01
9.655000000000000000e+03,6.000000238418579102e-01,4.800000190734863281e+00,1.217635714478859654e-10,-1.522174331025638594e-10,3.324581086635589600e-01,2.752706967294216156e-02,-1.475130915641784668e-01
9.656000000000000000e+03,6.999999880790710449e-01,4.800000190734863281e+00,1.352549877653430599e-10,-1.549120692834193846e-10,2.886146008968353271e-01,1.764857396483421326e-02,-1.256328821182250977e-01
9.657000000000000000e+03,8.000000119209289551e-01,4.800000190734863281e+00,1.470803062675329898e-10,-1.504906338434253144e-10,2.514170110225677490e-01,1.028436608612537384e-02,-1.075727492570877075e-01
9.658000000000000000e+03,8.999999761581420898e-01,4.800000190734863281e+00,1.574985003527373806e-10,-1.390424858582761658e-10,2.201777547597885132e-01,4.652716219425201416e-03,-9.250645339488983154e-02
9.659000000000000000e+03,1.000000000000000000e+00,4.800000190734863281e+00,1.667397608873244508e-10,-1.206687805233030986e-10,1.941427439451217651e-01,2.539230627007782459e-04,-7.981874793767929077e-02
9.660000000000000000e+03,1.100000023841857910e+00,4.800000190734863281e+00,1.750057043725661288e-10,-9.547694579392640435e-11,1.726120263338088989e-01,-3.242391860112547874e-03,-6.905449181795120239e-02
9.661000000000000000e+03,1.200000047683715820e+00,4.800000190734863281e+00,1.824717321685653815e-10,-6.357727538874868856e-11,1.549683213233947754e-01,-6.060560233891010284e-03,-5.987126380205154419e-02
9.662000000000000000e+03,1.299999952316284180e+00,4.800000190734863281e+00,1.892899864630592788e-10,-2.508088875474712154e-11,1.406761854887008667e-01,-8.357308804988861084e-03,-5.200650542974472046e-02
9.663000000000000000e+03,1.399999976158142090e+00,4.800000190734863281e+00,1.955921952179195955e-10,1.990195855339216280e-11,1.292730569839477539e-01,-1.024497300386428833e-02,-4.525507241487503052e-02
9.664000000000000000e+03,1.500000000000000000e+00,4.800000190734863281e+00,2.014922395598972571e-10,7.126258610989921749e-11,1.203589662909507751e-01,-1.180601306259632111e-02,-3.945333883166313171e-02
9.665000000000000000e+03,1.600000023841857910e+00,4.800000190734863281e+00,2.070883187155203586e-10,1.288948670019607334e-10,1.135869771242141724e-01,-1.310226786881685257e-02,-3.446872904896736145e-02
9.666000000000000000e+03,1.700000047683715820e+00,4.800000190734863281e+00,2.124649622903262980e-10,1.926958037579140637e-10,1.086551770567893982e-01,-1.418105140328407288e-02,-3.019194677472114563e-02
9.667000000000000000e+03,1.799999952316284180e+00,4.800000190734863281e+00,2.176946539700352901e-10,2.625658024335564278e-10,1.052999347448348999e-01,-1.507922913879156113e-02,-2.653153799474239349e-02
9.668000000000000000e+03,1.899999976158142090e+00,4.800000190734863281e+00,2.228393303216336108e-10,3.384093560931944467e-10,1.032904461026191711e-01,-1.582602038979530334e-02,-2.341013215482234955e-02
9.669000000000000000e+03,2.000000000000000000e+00,4.800000190734863281e+00,2.279516020387006847e-10,4.201348435817209293e-10,1.024242192506790161e-01,-1.644494011998176575e-02,-2.076124399900436401e-02
9.670000000000000000e+03,2.099999904632568359e+00,4.800000190734863281e+00,2.330758919200093260e-10,5.076548625915222601e-10,1.025233641266822815e-01,-1.695518381893634796e-02,-1.852741837501525879e-02
9.671000000000000000e+03,2.200000047683715820e+00,4.800000190734863281e+00,2.382493924368844773e-10,6.008867847739907120e-10,1.034315004944801331e-01,-1.737263426184654236e-02,-1.665859855711460114e-02
9.672000000000000000e+03,2.299999952316284180e+00,4.800000190734863281e+00,2.435029122782594868e-10,6.997515900053485893e-10,1.050111576914787292e-01,-1.771057583391666412e-02,-1.511050574481487274e-02
9.673000000000000000e+03,2.400000095367431641e+00,4.800000190734863281e+00,2.488617645290958080e-10,8.041756149879120130e-10,1.071415916085243225e-01,-1.798024773597717285e-02,-1.384439133107662201e-02
9.674000000000000000e+03,2.500000000000000000e+00,4.800000190734863281e+00,2.543462385151684657e-10,9.140885826042222106e-10,1.097168624401092529e-01,-1.819122955203056335e-02,-1.282543689012527466e-02
9.675000000000000000e+03,2.599999904632568359e+00,4.800000190734863281e+00,2.599724324703345246e-10,1.029425322762733686e-09,1.126442477107048035e-01,-1.835177466273307800e-02,-1.202299166470766068e-02
9.676000000000000000e+03,2.700000047683715820e+00,4.800000190734863281e+00,2.657525866034404771e-10,1.150124884219394517e-09,1.158427894115447998e-01,-1.846901699900627136e-02,-1.140953600406646729e-02
9.677000000000000000e+03,2.799999952316284180e+00,4.800000190734863281e+00,2.716957769877126339e-10,1.276129535376924196e-09,1.192420274019241333e-01,-1.854916848242282867e-02,-1.096030790358781815e-02
9.678000000000000000e+03,2.900000095367431641e+00,4.800000190734863281e+00,2.778081653609376644e-10,1.407386762686257953e-09,1.227809116244316101e-01,-1.859766244888305664e-02,-1.065350417047739029e-02
9.679000000000000000e+03,3.000000000000000000e+00,4.800000190734863281e+00,2.840935264813992944e-10,1.543846606111287656e-09,1.264067888259887695e-01,-1.861925423145294189e-02,-1.046921312808990479e-02
9.680000000000000000e+03,3.099999904632568359e+00,4.800000190734863281e+00,2.905535256836344615e-10,1.685463990597213524e-09,1.300745159387588501e-01,-1.861812919378280640e-02,-1.038997806608676910e-02
9.681000000000000000e+03,3.200000047683715820e+00,4.800000190734863281e+00,2.971880519453407032e-10,1.832196949713704726e-09,1.337456554174423218e-01,-1.859796606004238129e-02,-1.040006522089242935e-02
9.682000000000000000e+03,3.299999952316284180e+00,4.800000190734863281e+00,3.039954954431323131e-10,1.984006292587991993e-09,1.373877525329589844e-01,-1.856199651956558228e-02,-1.048529148101806641e-02
9.683000000000000000e+03,3.400000095367431641e+00,4.800000190734863281e+00,3.109729973527208813e-10,2.140857047194799634e-09,1.409736722707748413e-01,-1.851307041943073273e-02,-1.063337922096252441e-02
9.684000000000000000e+03,3.500000000000000000e+00,4.800000190734863281e+00,3.181166718935202198e-10,2.302715795821086431e-09,1.444809883832931519e-01,-1.845368184149265289e-02,-1.083304733037948608e-02
9.685000000000000000e+03,3.599999904632568359e+00,4.800000190734863281e+00,3.254217728621000560e-10,2.469553672668212130e-09,1.478914469480514526e-01,-1.838601939380168915e-02,-1.107464917004108429e-02
9.686000000000000000e+03,3.700000047683715820e+00,4.800000190734863281e+00,3.328829434323665737e-10,2.641343588294375877e-09,1.511905044317245483e-01,-1.831199787557125092e-02,-1.134954765439033508e-02
9.687000000000000000e+03,3.799999952316284180e+00,4.800000190734863281e+00,3.404941883999867969e-10,2.818060229614616219e-09,1.543668508529663086e-01,-1.823327876627445221e-02,-1.165000628679990768e-02
9.688000000000000000e+03,3.900000095367431641e+00,4.800000190734863281e+00,3.482493182715984403e-10,2.999682724436070203e-09,1.574119925498962402e-01,-1.815130747854709625e-02,-1.196959521621465683e-02
9.689000000000000000e+03,4.000000000000000000e+00,4.800000190734863281e+00,3.561416994646293688e-10,3.186189534432060100e-09,1.603199243545532227e-01,-1.806732639670372009e-02,-1.230234839022159576e-02
9.690000000000000000e+03,4.099999904632568359e+00,4.800000190734863281e+00,3.641646151297806000e-10,3.377563118078796833e-09,1.630867421627044678e-01,-1.798239909112453461e-02,-1.264342945069074631e-02
9.691000000000000000e+03,4.199999809265136719e+00,4.800000190734863281e+00,3.723112651510263049e-10,3.573787488164725801e-09,1.657104343175888062e-01,-1.789743266999721527e-02,-1.298851147294044495e-02
9.692000000000000000e+03,4.300000190734863281e+00,4.800000190734863281e+00,3.805748494123406545e-10,3.774848877924341650e-09,1.681905090808868408e-01,-1.781319826841354370e-02,-1.333403587341308594e-02
9.693000000000000000e+03,4.400000095367431641e+00,4.800000190734863281e+00,3.889485122865465883e-10,3.980733076502929180e-09,1.705278456211090088e-01,-1.773032732307910919e-02,-1.367664057761430740e-02
9.694000000000000000e+03,4.500000000000000000e+00,4.800000190734863281e+00,3.974255924354963554e-10,4.191428537581032288e-09,1.727243959903717041e-01,-1.764934509992599487e-02,-1.401401963084936142e-02
9.695000000000000000e+03,4.599999904632568359e+00,4.800000190734863281e+00,4.059995950544958987e-10,4.406925935285244122e-09,1.747830510139465332e-01,-1.757067628204822540e-02,-1.434395927935838699e-02
9.696000000000000000e+03,4.699999809265136719e+00,4.800000190734863281e+00,4.146641641167292391e-10,4.627215499652947983e-09,1.767074912786483765e-01,-1.749466173350811005e-02,-1.466473191976547241e-02
9.697000000000000000e+03,4.800000190734863281e+00,4.800000190734863281e+00,4.234131656399853227e-10,4.852291457524415819e-09,1.785019487142562866e-01,-1.742156408727169037e-02,-1.497504953294992447e-02
9.698000000000000000e+03,4.900000095367431641e+00,4.800000190734863281e+00,4.322406044199311737e-10,5.082143594847821078e-09,1.801711618900299072e-01,-1.735157333314418793e-02,-1.527356728911399841e-02
9.699000000000000000e+03,5.000000000000000000e+00,4.800000190734863281e+00,4.411408738302924348e-10,5.316768358909484959e-09,1.817202121019363403e-01,-1.728482544422149658e-02,-1.555975899100303650e-02
9.700000000000000000e+03,5.099999904632568359e+00,4.800000190734863281e+00,4.501085337782484430e-10,5.556159532460469563e-09,1.831544339656829834e-01,-1.722140237689018250e-02,-1.583297364413738251e-02
9.701000000000000000e+03,5.199999809265136719e+00,4.800000190734863281e+00,4.591384217267346912e-10,5.800313118697886239e-09,1.844793260097503662e-01,-1.716134697198867798e-02,-1.609285734593868256e-02
9.702000000000000000e+03,5.300000190734863281e+00,4.800000190734863281e+00,4.682256804500184444e-10,6.049226453086475885e-09,1.857005059719085693e-01,-1.710466854274272919e-02,-1.633931137621402740e-02
9.703000000000000000e+03,5.400000095367431641e+00,4.800000190734863281e+00,4.773656470113962769e-10,6.302893762466510452e-09,1.868236064910888672e-01,-1.705133542418479919e-02,-1.657202839851379395e-02
9.704000000000000000e+03,5.500000000000000000e+00,4.800000190734863281e+00,4.865539082743453037e-10,6.561314158659570239e-09,1.878542155027389526e-01,-1.700129546225070953e-02,-1.679136417806148529e-02
9.705000000000000000e+03,5.599999904632568359e+00,4.800000190734863281e+00,4.957865229471281054e-10,6.824484977130396146e-09,1.887978613376617432e-01,-1.695447042584419250e-02,-1.699742861092090607e-02
9.706000000000000000e+03,5.699999809265136719e+00,4.800000190734863281e+00,5.050594942268560317e-10,7.092404885611358623e-09,1.896599829196929932e-01,-1.691077463328838348e-02,-1.719050854444503784e-02
9.707000000000000000e+03,5.800000190734863281e+00,4.800000190734863281e+00,5.143693804221527444e-10,7.365072995924037969e-09,1.904458701610565186e-01,-1.687010191380977631e-02,-1.737103983759880066e-02
9.708000000000000000e+03,5.900000095367431641e+00,4.800000190734863281e+00,5.237127398416419055e-10,7.642486643533175084e-09,1.911606490612030029e-01,-1.683233864605426788e-02,-1.753916218876838684e-02
9.709000000000000000e+03,6.000000000000000000e+00,4.800000190734863281e+00,5.330864638608545647e-10,7.924644940260350268e-09,1.918092370033264160e-01,-1.679735817015171051e-02,-1.769559271633625031e-02
9.710000000000000000e+03,6.099999904632568359e+00,4.800000190734863281e+00,5.424876658999266965e-10,8.211548774283983221e-09,1.923963874578475952e-01,-1.676502823829650879e-02,-1.784073002636432648e-02
9.711000000000000000e+03,6.199999809265136719e+00,4.800000190734863281e+00,5.519137369347504318e-10,8.503196369247234543e-09,1.929266303777694702e-01,-1.673522032797336578e-02,-1.797508634626865387e-02
9.712000000000000000e+03,6.300000190734863281e+00,4.800000190734863281e+00,5.613621789635203641e-10,8.799590389685363334e-09,1.934042721986770630e-01,-1.670780219137668610e-02,-1.809927076101303101e-02
9.713000000000000000e+03,6.400000095367431641e+00,4.800000190734863281e+00,5.708306605178847803e-10,9.100727282884690794e-09,1.938334405422210693e-01,-1.668263971805572510e-02,-1.821354404091835022e-02
9.714000000000000000e+03,6.500000000000000000e+00,4.800000190734863281e+00,5.803171276852481242e-10,9.406607937023636623e-09,1.942179799079895020e-01,-1.665959879755973816e-02,-1.831870339810848236e-02
9.715000000000000000e+03,6.599999904632568359e+00,4.800000190734863281e+00,5.898196375753173015e-10,9.717234128459040221e-09,1.945615559816360474e-01,-1.663854159414768219e-02,-1.841519400477409363e-02
9.716000000000000000e+03,6.699999809265136719e+00,4.800000190734863281e+00,5.993364693424041434e-10,1.003260408083406219e-08,1.948676109313964844e-01,-1.661934889853000641e-02,-1.850354112684726715e-02
9.717000000000000000e+03,6.800000190734863281e+00,4.800000190734863281e+00,6.088660131631229433e-10,1.035272223504080102e-08,1.951393634080886841e-01,-1.660189405083656311e-02,-1.858434081077575684e-02
9.718000000000000000e+03,6.900000095367431641e+00,4.800000190734863281e+00,6.184067702363904573e-10,1.067758326200873853e-08,1.953798383474349976e-01,-1.658605970442295074e-02,-1.865782216191291809e-02
9.719000000000000000e+03,7.000000000000000000e+00,4.800000190734863281e+00,6.279573527834259039e-10,1.100719071445155350e-08,1.955918520689010620e-01,-1.657172664999961853e-02,-1.872473210096359253e-02
9.720000000000000000e+03,7.099999904632568359e+00,4.800000190734863281e+00,6.375167060923558893e-10,1.134154548054766565e-08,1.957779973745346069e-01,-1.655878126621246338e-02,-1.878545060753822327e-02
9.721000000000000000e+03,7.199999809265136719e+00,4.800000190734863281e+00,6.470835534067020944e-10,1.168064756029707496e-08,1.959407478570938110e-01,-1.654712110757827759e-02,-1.884042471647262573e-02
9.722000000000000000e+03,7.300000190734863281e+00,4.800000190734863281e+00,6.566571175703472818e-10,1.202449784187820114e-08,1.960823237895965576e-01,-1.653665117919445038e-02,-1.889016665518283844e-02
9.723000000000000000e+03,7.400000095367431641e+00,4.800000190734863281e+00,6.662362883602668262e-10,1.237309632529104420e-08,1.962048411369323730e-01,-1.652727276086807251e-02,-1.893480867147445679e-02
9.724000000000000000e+03,7.500000000000000000e+00,4.800000190734863281e+00,6.758203441314947213e-10,1.272644301053560412e-08,1.963101923465728760e-01,-1.651889458298683167e-02,-1.897500455379486084e-02
9.725000000000000000e+03,7.599999904632568359e+00,4.800000190734863281e+00,6.854086187502161920e-10,1.308453878579030061e-08,1.964001655578613281e-01,-1.651143096387386322e-02,-1.901102811098098755e-02
9.726000000000000000e+03,7.699999809265136719e+00,4.800000190734863281e+00,6.950003905714652319e-10,1.344738542741197307e-08,1.964763849973678589e-01,-1.650480739772319794e-02,-1.904322765767574310e-02
9.727000000000000000e+03,7.800000190734863281e+00,4.800000190734863281e+00,7.045952155060319910e-10,1.381498382357904120e-08,1.965403407812118530e-01,-1.649894937872886658e-02,-1.907200738787651062e-02
9.728000000000000000e+03,7.900000095367431641e+00,4.800000190734863281e+00,7.141924274201016942e-10,1.418733219793466560e-08,1.965933889150619507e-01,-1.649378798902034760e-02,-1.909740082919597626e-02
9.729000000000000000e+03,8.000000000000000000e+00,4.800000190734863281e+00,7.237916377356157227e-10,1.456443143865726597e-08,1.966367810964584351e-01,-1.648925803601741791e-02,-1.911995932459831238e-02
9.730000000000000000e+03,8.100000381469726562e+00,4.800000190734863281e+00,7.333924578745154577e-10,1.494628421028210141e-08,1.966716349124908447e-01,-1.648529991507530212e-02,-1.913994923233985901e-02
9.731000000000000000e+03,8.199999809265136719e+00,4.800000190734863281e+00,7.429944992587422803e-10,1.533288696009549312e-08,1.966989934444427490e-01,-1.648185960948467255e-02,-1.915725134313106537e-02
9.732000000000000000e+03,8.300000190734863281e+00,4.800000190734863281e+00,7.525975398436912656e-10,1.572424679352479870e-08,1.967197954654693604e-01,-1.647888310253620148e-02,-1.917272433638572693e-02
9.733000000000000000e+03,8.399999618530273438e+00,4.800000190734863281e+00,7.622011910513037947e-10,1.612035660514266056e-08,1.967348605394363403e-01,-1.647632382810115814e-02,-1.918585598468780518e-02
9.734000000000000000e+03,8.500000000000000000e+00,4.800000190734863281e+00,7.718053973704286363e-10,1.652122350037643628e-08,1.967449635267257690e-01,-1.647414080798625946e-02,-1.919757202267646790e-02
9.735000000000000000e+03,8.600000381469726562e+00,4.800000190734863281e+00,7.814098257341584031e-10,1.692684392651244707e-08,1.967507898807525635e-01,-1.647229492664337158e-02,-1.920749992132186890e-02
9.736000000000000000e+03,8.699999809265136719e+00,4.800000190734863281e+00,7.910142540978881698e-10,1.733721610719385353e-08,1.967529505491256714e-01,-1.647075079381465912e-02,-1.921580731868743896e-02
9.737000000000000000e+03,8.800000190734863281e+00,4.800000190734863281e+00,8.006187379727691678e-10,1.775234714784801326e-08,1.967519968748092651e-01,-1.646946743130683899e-02,-1.922318711876869202e-02
9.738000000000000000e+03,8.899999618530273438e+00,4.800000190734863281e+00,8.102228887807427782e-10,1.817222994304756867e-08,1.967484205961227417e-01,-1.646841876208782196e-02,-1.922905445098876953e-02
9.739000000000000000e+03,9.000000000000000000e+00,4.800000190734863281e+00,8.198268730552626948e-10,1.859687159821987734e-08,1.967426538467407227e-01,-1.646757870912551880e-02,-1.923426985740661621e-02
9.740000000000000000e+03,9.100000381469726562e+00,4.800000190734863281e+00,8.294305242628752239e-10,1.902627033700809989e-08,1.967350989580154419e-01,-1.646692305803298950e-02,-1.923839561641216278e-02
9.741000000000000000e+03,9.199999809265136719e+00,4.800000190734863281e+00,8.390336203589754405e-10,1.946042083034171810e-08,1.967260837554931641e-01,-1.646642945706844330e-02,-1.924154162406921387e-02
9.742000000000000000e+03,9.300000190734863281e+00,4.800000190734863281e+00,8.486362723658658069e-10,1.989933196000492899e-08,1.967159211635589600e-01,-1.646606996655464172e-02,-1.924434490501880646e-02
9.743000000000000000e+03,9.399999618530273438e+00,4.800000190734863281e+00,8.582383692612438608e-10,2.034299484421353554e-08,1.967048496007919312e-01,-1.646583154797554016e-02,-1.924616657197475433e-02
9.744000000000000000e+03,9.500000000000000000e+00,4.800000190734863281e+00,8.678399665562608334e-10,2.079142014110857417e-08,1.966931223869323730e-01,-1.646569743752479553e-02,-1.924782060086727142e-02
9.745000000000000000e+03,9.600000381469726562e+00,4.800000190734863281e+00,8.774409532286142621e-10,2.124460252161952667e-08,1.966809481382369995e-01,-1.646565273404121399e-02,-1.924882456660270691e-02
9.746000000000000000e+03,9.699999809265136719e+00,4.800000190734863281e+00,8.870413292783041470e-10,2.170253665667587484e-08,1.966684758663177490e-01,-1.646568812429904938e-02,-1.924924366176128387e-02
9.747000000000000000e+03,9.800000190734863281e+00,4.800000190734863281e+00,8.966411502164817193e-10,2.216523498077549448e-08,1.966558843851089478e-01,-1.646578125655651093e-02,-1.924967765808105469e-02
9.748000000000000000e+03,9.899999618530273438e+00,4.800000190734863281e+00,9.062402495096932853e-10,2.263268505942050979e-08,1.966432780027389526e-01,-1.646592654287815094e-02,-1.924945414066314697e-02
9.749000000000000000e+03,1.000000000000000000e+01,4.800000190734863281e+00,9.158389047136950012e-10,2.310489755075195717e-08,1.966307610273361206e-01,-1.646611653268337250e-02,-1.924935169517993927e-02
9.750000000000000000e+03,1.010000038146972656e+01,4.800000190734863281e+00,9.254369492950331733e-10,2.358186712569931842e-08,1.966184377670288086e-01,-1.646634191274642944e-02,-1.924886181950569153e-02
9.751000000000000000e+03,1.019999980926513672e+01,4.800000190734863281e+00,9.350343832537078015e-10,2.406359200790575414e-08,1.966063827276229858e-01,-1.646659895777702332e-02,-1.924800872802734375e-02
9.752000000000000000e+03,1.030000019073486328e+01,4.800000190734863281e+00,9.446312621008701171e-10,2.455007930279862194e-08,1.965946555137634277e-01,-1.646687276661396027e-02,-1.924739405512809753e-02
9.753000000000000000e+03,1.039999961853027344e+01,4.800000190734863281e+00,9.542275858365201202e-10,2.504132012859372480e-08,1.965832859277725220e-01,-1.646716147661209106e-02,-1.924628578126430511e-02
9.754000000000000000e+03,1.050000000000000000e+01,4.800000190734863281e+00,9.638234654829602732e-10,2.553732336707525974e-08,1.965723335742950439e-01,-1.646746136248111725e-02,-1.924548111855983734e-02
9.755000000000000000e+03,1.060000038146972656e+01,4.800000190734863281e+00,9.734187900178881137e-10,2.603808546552954795e-08,1.965618133544921875e-01,-1.646776869893074036e-02,-1.924441941082477570e-02
9.756000000000000000e+03,1.069999980926513672e+01,4.800000190734863281e+00,9.830136704636061040e-10,2.654360287124291062e-08,1.965517550706863403e-01,-1.646808348596096039e-02,-1.924312114715576172e-02
9.757000000000000000e+03,1.080000019073486328e+01,4.800000190734863281e+00,9.926081068201142443e-10,2.705388091328586597e-08,1.965421736240386963e-01,-1.646839268505573273e-02,-1.924217306077480316e-02
9.758000000000000000e+03,1.089999961853027344e+01,4.800000190734863281e+00,1.002201988065110072e-09,2.756891426258789579e-08,1.965330690145492554e-01,-1.646869815886020660e-02,-1.924082823097705841e-02
9.759000000000000000e+03,1.100000000000000000e+01,4.800000190734863281e+00,1.011795647265500975e-09,2.808871180093319708e-08,1.965244412422180176e-01,-1.646899990737438202e-02,-1.923986710608005524e-02
9.760000000000000000e+03,1.110000038146972656e+01,4.800000190734863281e+00,1.021388862376682027e-09,2.861326819925125164e-08,1.965162903070449829e-01,-1.646929793059825897e-02,-1.923872344195842743e-02
9.761000000000000000e+03,1.119999980926513672e+01,4.800000190734863281e+00,1.030981633398653230e-09,2.914257812847154128e-08,1.965086162090301514e-01,-1.646959036588668823e-02,-1.923740282654762268e-02
9.762000000000000000e+03,1.130000019073486328e+01,4.800000190734863281e+00,1.040574182376019508e-09,2.967665224673510238e-08,1.965014189481735229e-01,-1.646986603736877441e-02,-1.923648267984390259e-02
9.763000000000000000e+03,1.139999961853027344e+01,4.800000190734863281e+00,1.050166287264175935e-09,3.021547811954405915e-08,1.964946538209915161e-01,-1.647013425827026367e-02,-1.923521049320697784e-02
9.764000000000000000e+03,1.150000000000000000e+01,4.800000190734863281e+00,1.059758170107727437e-09,3.075907173410996620e-08,1.964883357286453247e-01,-1.647039130330085754e-02,-1.923435926437377930e-02
9.765000000000000000e+03,1.160000038146972656e+01,4.800000190734863281e+00,1.069349830906674015e-09,3.130742243229178712e-08,1.964824497699737549e-01,-1.647063717246055603e-02,-1.923335157334804535e-02
9.766000000000000000e+03,1.169999980926513672e+01,4.800000190734863281e+00,1.078941158638713205e-09,3.186052666137584310e-08,1.964769512414932251e-01,-1.647087745368480682e-02,-1.923219300806522369e-02
9.767000000000000000e+03,1.180000019073486328e+01,4.800000190734863281e+00,1.088532264326147470e-09,3.241839507950317056e-08,1.964718699455261230e-01,-1.647109724581241608e-02,-1.923145353794097900e-02
9.768000000000000000e+03,1.189999961853027344e+01,4.800000190734863281e+00,1.098123147968976809e-09,3.298101702853273309e-08,1.964671462774276733e-01,-1.647130772471427917e-02,-1.923037692904472351e-02
9.769000000000000000e+03,1.200000000000000000e+01,4.800000190734863281e+00,1.107713809567201224e-09,3.354840316660556709e-08,1.964627802371978760e-01,-1.647150516510009766e-02,-1.922973059117794037e-02
9.770000000000000000e+03,1.210000038146972656e+01,4.800000190734863281e+00,1.117304360143123176e-09,3.412054994100799377e-08,1.964587420225143433e-01,-1.647169515490531921e-02,-1.922893710434436798e-02
9.771000000000000000e+03,1.219999980926513672e+01,4.800000190734863281e+00,1.126894577652137741e-09,3.469744669359897671e-08,1.964550316333770752e-01,-1.647187583148479462e-02,-1.922799460589885712e-02
9.772000000000000000e+03,1.230000019073486328e+01,4.800000190734863281e+00,1.136484795161152306e-09,3.527911118794690992e-08,1.964516192674636841e-01,-1.647203974425792694e-02,-1.922747679054737091e-02
9.773000000000000000e+03,1.239999961853027344e+01,4.800000190734863281e+00,1.146074790625561945e-09,3.586552921319707821e-08,1.964484751224517822e-01,-1.647219248116016388e-02,-1.922661811113357544e-02
9.774000000000000000e+03,1.250000000000000000e+01,4.800000190734863281e+00,1.155664675067669123e-09,3.645671142749051796e-08,1.964456140995025635e-01,-1.647233590483665466e-02,-1.922618784010410309e-02
9.775000000000000000e+03,1.260000038146972656e+01,4.800000190734863281e+00,1.165254448487473837e-09,3.705265427811355039e-08,1.964429914951324463e-01,-1.647247001528739929e-02,-1.922560669481754303e-02
9.776000000000000000e+03,1.269999980926513672e+01,4.800000190734863281e+00,1.174843999862673627e-09,3.765334710692513909e-08,1.964405924081802368e-01,-1.647260040044784546e-02,-1.922487467527389526e-02
9.777000000000000000e+03,1.280000019073486328e+01,4.800000190734863281e+00,1.184433551237873417e-09,3.825880767749367806e-08,1.964384168386459351e-01,-1.647271402180194855e-02,-1.922455802559852600e-02
9.778000000000000000e+03,1.289999961853027344e+01,4.800000190734863281e+00,1.194022991590770744e-09,3.886902177896445210e-08,1.964364349842071533e-01,-1.647281832993030548e-02,-1.922389678657054901e-02
9.779000000000000000e+03,1.300000000000000000e+01,4.800000190734863281e+00,1.203612431943668071e-09,3.948400006947849761e-08,1.964346319437026978e-01,-1.647291705012321472e-02,-1.922365650534629822e-02
9.780000000000000000e+03,1.310000038146972656e+01,4.800000190734863281e+00,1.213201650251960473e-09,4.010373544360845699e-08,1.964330077171325684e-01,-1.647301018238067627e-02,-1.922325789928436279e-02
9.781000000000000000e+03,1.319999980926513672e+01,4.800000190734863281e+00,1.222790868560252875e-09,4.072822434864065144e-08,1.964315474033355713e-01,-1.647309772670269012e-02,-1.922269910573959351e-02
9.782000000000000000e+03,1.330000019073486328e+01,4.800000190734863281e+00,1.232380086868545277e-09,4.135748099542979617e-08,1.964302211999893188e-01,-1.647317223250865936e-02,-1.922255009412765503e-02
9.783000000000000000e+03,1.339999961853027344e+01,4.800000190734863281e+00,1.241969083132232754e-09,4.199149117312117596e-08,1.964290291070938110e-01,-1.647324301302433014e-02,-1.922204717993736267e-02
9.784000000000000000e+03,1.350000000000000000e+01,4.800000190734863281e+00,1.251558190418222694e-09,4.263026198714214843e-08,1.964279711246490479e-01,-1.647330634295940399e-02,-1.922195591032505035e-02
9.785000000000000000e+03,1.360000038146972656e+01,4.800000190734863281e+00,1.261147186681910171e-09,4.327379699020639237e-08,1.964270025491714478e-01,-1.647336594760417938e-02,-1.922169886529445648e-02
9.786000000000000000e+03,1.369999980926513672e+01,4.800000190734863281e+00,1.270736071923295185e-09,4.392208197145919257e-08,1.964261531829833984e-01,-1.647342555224895477e-02,-1.922127418220043182e-02
9.787000000000000000e+03,1.380000019073486328e+01,4.800000190734863281e+00,1.280325068186982662e-09,4.457513469446894305e-08,1.964253932237625122e-01,-1.647347211837768555e-02,-1.922124996781349182e-02
9.788000000000000000e+03,1.389999961853027344e+01,4.800000190734863281e+00,1.289913953428367677e-09,4.523293739566724980e-08,1.964247077703475952e-01,-1.647351495921611786e-02,-1.922086440026760101e-02
9.789000000000000000e+03,1.400000000000000000e+01,4.800000190734863281e+00,1.299502838669752691e-09,4.589550783862250682e-08,1.964241117238998413e-01,-1.647355407476425171e-02,-1.922088302671909332e-02
9.790000000000000000e+03,1.410000038146972656e+01,4.800000190734863281e+00,1.309091723911137706e-09,4.656283536519367772e-08,1.964235752820968628e-01,-1.647359319031238556e-02,-1.922072842717170715e-02
9.791000000000000000e+03,1.419999980926513672e+01,4.800000190734863281e+00,1.318680498130220258e-09,4.723491642266708368e-08,1.964230984449386597e-01,-1.647362858057022095e-02,-1.922039687633514404e-02
9.792000000000000000e+03,1.430000019073486328e+01,4.800000190734863281e+00,1.328269272349302810e-09,4.791176166918376111e-08,1.964226961135864258e-01,-1.647365652024745941e-02,-1.922045834362506866e-02
9.793000000000000000e+03,1.439999961853027344e+01,4.800000190734863281e+00,1.337858046568385362e-09,4.859336044660267362e-08,1.964223235845565796e-01,-1.647368073463439941e-02,-1.922015100717544556e-02
9.794000000000000000e+03,1.450000000000000000e+01,4.800000190734863281e+00,1.347446820787467914e-09,4.927972696577853640e-08,1.964220106601715088e-01,-1.647370308637619019e-02,-1.922023855149745941e-02
9.795000000000000000e+03,1.460000038146972656e+01,4.800000190734863281e+00,1.357035595006550466e-09,4.997085056857031304e-08,1.964217424392700195e-01,-1.647372357547283173e-02,-1.922014541923999786e-02
9.796000000000000000e+03,1.469999980926513672e+01,4.800000190734863281e+00,1.366624258203330555e-09,5.066672770226432476e-08,1.964215040206909180e-01,-1.647374406456947327e-02,-1.921986788511276245e-02
9.797000000000000000e+03,1.480000019073486328e+01,4.800000190734863281e+00,1.376213032422413107e-09,5.136736902500160795e-08,1.964213252067565918e-01,-1.647375337779521942e-02,-1.921997219324111938e-02
9.798000000000000000e+03,1.489999961853027344e+01,4.800000190734863281e+00,1.385801695619193197e-09,5.207276387864112621e-08,1.964211612939834595e-01,-1.647376269102096558e-02,-1.921969838440418243e-02
9.799000000000000000e+03,1.500000000000000000e+01,4.800000190734863281e+00,1.395390469838275749e-09,5.278292647403759474e-08,1.964210569858551025e-01,-1.647376641631126404e-02,-1.921981200575828552e-02
9.800000000000000000e+03,1.510000038146972656e+01,4.800000190734863281e+00,1.404979244057358301e-09,5.349784615304997715e-08,1.964209824800491333e-01,-1.647376827895641327e-02,-1.921972818672657013e-02
9.801000000000000000e+03,1.519999980926513672e+01,4.800000190734863281e+00,1.414567907254138390e-09,5.421751581025091582e-08,1.964209377765655518e-01,-1.647377014160156250e-02,-1.921944878995418549e-02
9.802000000000000000e+03,1.530000019073486328e+01,4.800000190734863281e+00,1.424156681473220942e-09,5.494195676192248357e-08,1.964209675788879395e-01,-1.647376082837581635e-02,-1.921953633427619934e-02
9.803000000000000000e+03,1.539999961853027344e+01,4.800000190734863281e+00,1.433745344670001032e-09,5.567114413906892878e-08,1.964210271835327148e-01,-1.647374406456947327e-02,-1.921922713518142700e-02
9.804000000000000000e+03,1.550000000000000000e+01,4.800000190734863281e+00,1.443334118889083584e-09,5.640510281068600307e-08,1.964211463928222656e-01,-1.647372357547283173e-02,-1.921928301453590393e-02
9.805000000000000000e+03,1.560000038146972656e+01,4.800000190734863281e+00,1.452922893108166136e-09,5.714381856591899123e-08,1.964213401079177856e-01,-1.647369563579559326e-02,-1.921912282705307007e-02
9.806000000000000000e+03,1.569999980926513672e+01,4.800000190734863281e+00,1.462511556304946225e-09,5.788728429934053565e-08,1.964216083288192749e-01,-1.647366210818290710e-02,-1.921873539686203003e-02
9.807000000000000000e+03,1.580000019073486328e+01,4.800000190734863281e+00,1.472100330524028777e-09,5.863551777451903035e-08,1.964219808578491211e-01,-1.647361181676387787e-02,-1.921868510544300079e-02
9.808000000000000000e+03,1.589999961853027344e+01,4.800000190734863281e+00,1.481689104743111329e-09,5.938850478059976012e-08,1.964224725961685181e-01,-1.647354662418365479e-02,-1.921819895505905151e-02
9.809000000000000000e+03,1.600000000000000000e+01,4.800000190734863281e+00,1.491277989984496344e-09,6.014625597572376137e-08,1.964230835437774658e-01,-1.647346466779708862e-02,-1.921803504228591919e-02
9.810000000000000000e+03,1.610000038146972656e+01,4.800000190734863281e+00,1.500866875225881358e-09,6.090876780717735528e-08,1.964238584041595459e-01,-1.647337526082992554e-02,-1.921761035919189453e-02
9.811000000000000000e+03,1.620000076293945312e+01,4.800000190734863281e+00,1.510455760467266373e-09,6.167604027496054186e-08,1.964248567819595337e-01,-1.647326536476612091e-02,-1.921708509325981140e-02
9.812000000000000000e+03,1.629999923706054688e+01,4.800000190734863281e+00,1.520044534686348925e-09,6.244805206279124832e-08,1.964260786771774292e-01,-1.647312194108963013e-02,-1.921605691313743591e-02
9.813000000000000000e+03,1.639999961853027344e+01,4.800000190734863281e+00,1.529633641972338864e-09,6.322484580323362025e-08,1.964275836944580078e-01,-1.647293940186500549e-02,-1.921566203236579895e-02
9.814000000000000000e+03,1.650000000000000000e+01,4.800000190734863281e+00,1.539222749258328804e-09,6.400639307457822724e-08,1.964294016361236572e-01,-1.647272706031799316e-02,-1.921473257243633270e-02
9.815000000000000000e+03,1.660000038146972656e+01,4.800000190734863281e+00,1.548812078588923669e-09,6.479270098225242691e-08,1.964316368103027344e-01,-1.647248491644859314e-02,-1.921362057328224182e-02
9.816000000000000000e+03,1.670000076293945312e+01,4.800000190734863281e+00,1.558401407919518533e-09,6.558376242082886165e-08,1.964343637228012085e-01,-1.647219061851501465e-02,-1.921227574348449707e-02
9.817000000000000000e+03,1.679999923706054688e+01,4.800000190734863281e+00,1.567990737250113398e-09,6.637957739030753146e-08,1.964376270771026611e-01,-1.647183112800121307e-02,-1.921027712523937225e-02
9.818000000000000000e+03,1.689999961853027344e+01,4.800000190734863281e+00,1.577580399647615650e-09,6.718016010154315154e-08,1.964415758848190308e-01,-1.647138968110084534e-02,-1.920873485505580902e-02
9.819000000000000000e+03,1.700000000000000000e+01,4.800000190734863281e+00,1.587170395112025290e-09,6.798550344910836429e-08,1.964462846517562866e-01,-1.647087186574935913e-02,-1.920645125210285187e-02
9.820000000000000000e+03,1.710000038146972656e+01,4.800000190734863281e+00,1.596760501598737392e-09,6.879560743300316972e-08,1.964519172906875610e-01,-1.647026836872100830e-02,-1.920374482870101929e-02
9.821000000000000000e+03,1.720000076293945312e+01,4.800000190734863281e+00,1.606351052174659344e-09,6.961047205322756781e-08,1.964586526155471802e-01,-1.646954379975795746e-02,-1.920052431523799896e-02
9.822000000000000000e+03,1.729999923706054688e+01,4.800000190734863281e+00,1.615941713772883759e-09,7.043008309892684338e-08,1.964666545391082764e-01,-1.646867580711841583e-02,-1.919632218778133392e-02
9.823000000000000000e+03,1.739999961853027344e+01,4.800000190734863281e+00,1.625533041504922949e-09,7.125446188638306921e-08,1.964761316776275635e-01,-1.646762900054454803e-02,-1.919219270348548889e-02
9.824000000000000000e+03,1.750000000000000000e+01,4.800000190734863281e+00,1.635124813326171989e-09,7.208360131016888772e-08,1.964873373508453369e-01,-1.646638661623001099e-02,-1.918687485158443451e-02
9.825000000000000000e+03,1.760000038146972656e+01,4.800000190734863281e+00,1.644717251281235804e-09,7.291750137028429890e-08,1.965005844831466675e-01,-1.646491326391696930e-02,-1.918060518801212311e-02
9.826000000000000000e+03,1.770000076293945312e+01,4.800000190734863281e+00,1.654310355370114394e-09,7.375616206672930275e-08,1.965162158012390137e-01,-1.646314561367034912e-02,-1.917320303618907928e-02
9.827000000000000000e+03,1.779999923706054688e+01,4.800000190734863281e+00,1.663904125592807759e-09,7.459956918864918407e-08,1.965345889329910278e-01,-1.646101474761962891e-02,-1.916408352553844452e-02
9.828000000000000000e+03,1.789999961853027344e+01,4.800000190734863281e+00,1.673499117060828212e-09,7.544774405232601566e-08,1.965561807155609131e-01,-1.645843312144279480e-02,-1.915416307747364044e-02
9.829000000000000000e+03,1.800000000000000000e+01,4.800000190734863281e+00,1.683095329774175752e-09,7.630068665775979753e-08,1.965814977884292603e-01,-1.645531319081783295e-02,-1.914201304316520691e-02
9.830000000000000000e+03,1.810000038146972656e+01,4.800000190734863281e+00,1.692692763732850381e-09,7.715838279409581446e-08,1.966111809015274048e-01,-1.645152457058429718e-02,-1.912765763700008392e-02
9.831000000000000000e+03,1.820000076293945312e+01,4.800000190734863281e+00,1.702291863026061947e-09,7.802083956676142407e-08,1.966459304094314575e-01,-1.644687354564666748e-02,-1.911064796149730682e-02
9.832000000000000000e+03,1.829999923706054688e+01,4.800000190734863281e+00,1.711892627653810450e-09,7.888804276490191114e-08,1.966865956783294678e-01,-1.644111983478069305e-02,-1.909006759524345398e-02
9.833000000000000000e+03,1.839999961853027344e+01,4.800000190734863281e+00,1.721495723749910667e-09,7.976001370479934849e-08,1.967341303825378418e-01,-1.643393561244010925e-02,-1.906639523804187775e-02
9.834000000000000000e+03,1.850000000000000000e+01,4.800000190734863281e+00,1.731101373358967521e-09,8.063675238645373611e-08,1.967896670103073120e-01,-1.642489805817604065e-02,-1.903763972222805023e-02
9.835000000000000000e+03,1.860000038146972656e+01,4.800000190734863281e+00,1.740709909547888401e-09,8.151824459901035880e-08,1.968545764684677124e-01,-1.641339436173439026e-02,-1.900308206677436829e-02
9.836000000000000000e+03,1.870000076293945312e+01,4.800000190734863281e+00,1.750321776405883156e-09,8.240449744789657416e-08,1.969303786754608154e-01,-1.639853976666927338e-02,-1.896128430962562561e-02
9.837000000000000000e+03,1.879999923706054688e+01,4.800000190734863281e+00,1.759937529044464100e-09,8.329548961683030939e-08,1.970188319683074951e-01,-1.637906767427921295e-02,-1.890999265015125275e-02
9.838000000000000000e+03,1.889999961853027344e+01,4.800000190734863281e+00,1.769557944619748469e-09,8.419125663294835249e-08,1.971219927072525024e-01,-1.635310985147953033e-02,-1.884787529706954956e-02
9.839000000000000000e+03,1.900000000000000000e+01,4.800000190734863281e+00,1.779183578243248576e-09,8.509177717996863066e-08,1.972419619560241699e-01,-1.631788536906242371e-02,-1.877045072615146637e-02
9.840000000000000000e+03,1.910000038146972656e+01,4.800000190734863281e+00,1.788815096048779196e-09,8.599705836331850151e-08,1.973808109760284424e-01,-1.626910269260406494e-02,-1.867361925542354584e-02
9.841000000000000000e+03,1.920000076293945312e+01,4.800000190734863281e+00,1.798453164170155105e-09,8.690709307757060742e-08,1.975398361682891846e-01,-1.620004698634147644e-02,-1.855142414569854736e-02
9.842000000000000000e+03,1.929999923706054688e+01,4.800000190734863281e+00,1.808098226696586153e-09,8.782185290101551800e-08,1.977178603410720825e-01,-1.610018126666545868e-02,-1.839597709476947784e-02
9.843000000000000000e+03,1.939999961853027344e+01,4.800000190734863281e+00,1.817750283628072339e-09,8.874138757164473645e-08,1.979069858789443970e-01,-1.595319435000419617e-02,-1.820037513971328735e-02
9.844000000000000000e+03,1.950000000000000000e+01,4.800000190734863281e+00,1.827407558607774263e-09,8.966565445689411717e-08,1.980812847614288330e-01,-1.573628559708595276e-02,-1.796021871268749237e-02
9.845000000000000000e+03,1.960000038146972656e+01,4.800000190734863281e+00,1.837064500520568799e-09,9.059466066219101776e-08,1.981663256883621216e-01,-1.543027907609939575e-02,-1.769858039915561676e-02
9.846000000000000000e+03,1.970000076293945312e+01,4.800000190734863281e+00,1.846706787489438284e-09,9.152836355497129261e-08,1.979592740535736084e-01,-1.509455218911170959e-02,-1.753717847168445587e-02
9.847000000000000000e+03,1.979999923706054688e+01,4.800000190734863281e+00,1.856302445091273512e-09,9.246669918638872332e-08,1.969463974237442017e-01,-1.521347928792238235e-02,-1.792629435658454895e-02
9.848000000000000000e+03,1.989999961853027344e+01,4.800000190734863281e+00,1.865826160241113030e-09,9.340958939674237627e-08,1.945191919803619385e-01,-1.825567334890365601e-02,-1.984633505344390869e-02
9.849000000000000000e+03,2.000000000000000000e+01,4.800000190734863281e+00,1.875419597396899007e-09,9.435709102945111226e-08,1.944885104894638062e-01,-2.324547432363033295e-02,-2.081804908812046051e-02
9.850000000000000000e+03,0.000000000000000000e+00,4.900000095367431641e+00,2.461345439865240200e-38,-1.733961114561671344e-39,6.274976134300231934e-01,1.882492899894714355e-01,-2.948440909385681152e-01
9.851000000000000000e+03,1.000000014901161194e-01,4.900000095367431641e+00,2.719156323716109824e-11,-3.650450428049900609e-11,6.185442209243774414e-01,1.584046930074691772e-01,-2.642173469066619873e-01
9.852000000000000000e+03,2.000000029802322388e-01,4.900000095367431641e+00,5.451784509946655533e-11,-7.455735334671587111e-11,6.012903451919555664e-01,9.146135300397872925e-02,-2.415964305400848389e-01
9.853000000000000000e+03,3.000000119209289551e-01,4.900000095367431641e+00,7.659069212184732578e-11,-1.054242040887665155e-10,4.795638024806976318e-01,5.344710126519203186e-02,-1.849309206008911133e-01
9.854000000000000000e+03,4.000000059604644775e-01,4.900000095367431641e+00,9.400834971584615118e-11,-1.292204399039320606e-10,3.745670318603515625e-01,2.932039089500904083e-02,-1.490585356950759888e-01
9.855000000000000000e+03,5.000000000000000000e-01,4.900000095367431641e+00,1.076637598518281891e-10,-1.457784587488575312e-10,2.913295626640319824e-01,1.521976664662361145e-02,-1.229285523295402527e-01
9.856000000000000000e+03,6.000000238418579102e-01,4.900000095367431641e+00,1.183091402623404065e-10,-1.551479084094253835e-10,2.253745645284652710e-01,6.072251591831445694e-03,-1.035774871706962585e-01
9.857000000000000000e+03,6.999999880790710449e-01,4.900000095367431641e+00,1.265309801379288501e-10,-1.573855351599817709e-10,1.726108193397521973e-01,-1.596159272594377398e-04,-8.853635936975479126e-02
9.858000000000000000e+03,8.000000119209289551e-01,4.900000095367431641e+00,1.327918885962731110e-10,-1.525689852233114152e-10,1.300939023494720459e-01,-4.617283586412668228e-03,-7.650370895862579346e-02
9.859000000000000000e+03,8.999999761581420898e-01,4.900000095367431641e+00,1.374635266726542682e-10,-1.407868821523550196e-10,9.573028981685638428e-02,-7.913352921605110168e-03,-6.665786355733871460e-02
9.860000000000000000e+03,1.000000000000000000e+00,4.900000095367431641e+00,1.408494432197926471e-10,-1.221357737168915492e-10,6.798053532838821411e-02,-1.041280012577772141e-02,-5.847075954079627991e-02
9.861000000000000000e+03,1.100000023841857910e+00,4.900000095367431641e+00,1.432008261970096896e-10,-9.671721756809859016e-11,4.567601159214973450e-02,-1.234298851341009140e-02,-5.158215388655662537e-02
9.862000000000000000e+03,1.200000047683715820e+00,4.900000095367431641e+00,1.447274661225961268e-10,-6.463556773139700340e-11,2.790355123579502106e-02,-1.385299116373062134e-02,-4.573683068156242371e-02
9.863000000000000000e+03,1.299999952316284180e+00,4.900000095367431641e+00,1.456058329463161272e-10,-2.599632141497831839e-11,1.393240317702293396e-02,-1.504441723227500916e-02,-4.074731841683387756e-02
9.864000000000000000e+03,1.399999976158142090e+00,4.900000095367431641e+00,1.459850157425890416e-10,1.909535030097941899e-11,3.166167996823787689e-03,-1.598894409835338593e-02,-3.647190704941749573e-02
9.865000000000000000e+03,1.500000000000000000e+00,4.900000095367431641e+00,1.459913023804659815e-10,7.053535533430022042e-11,-4.889689385890960693e-03,-1.673864014446735382e-02,-3.280032053589820862e-02
9.866000000000000000e+03,1.600000023841857910e+00,4.900000095367431641e+00,1.457317322373086199e-10,1.282216832709792698e-10,-1.065059844404459000e-02,-1.733228936791419983e-02,-2.964501455426216125e-02
9.867000000000000000e+03,1.700000047683715820e+00,4.900000095367431641e+00,1.452969966564410242e-10,1.920549136391613843e-10,-1.446915324777364731e-02,-1.779945567250251770e-02,-2.693492732942104340e-02
9.868000000000000000e+03,1.799999952316284180e+00,4.900000095367431641e+00,1.447637565377135616e-10,2.619386929580969081e-10,-1.664705201983451843e-02,-1.816311292350292206e-02,-2.461132593452930450e-02
9.869000000000000000e+03,1.899999976158142090e+00,4.900000095367431641e+00,1.441965297166447613e-10,3.377803869941686798e-10,-1.744410395622253418e-02,-1.844144426286220551e-02,-2.262505516409873962e-02
9.870000000000000000e+03,2.000000000000000000e+00,4.900000095367431641e+00,1.436493701767460607e-10,4.194908864718627228e-10,-1.708504371345043182e-02,-1.864906959235668182e-02,-2.093413844704627991e-02
9.871000000000000000e+03,2.099999904632568359e+00,4.900000095367431641e+00,1.431672003171513552e-10,5.069849540184634407e-10,-1.576492190361022949e-02,-1.879787817597389221e-02,-1.950253359973430634e-02
9.872000000000000000e+03,2.200000047683715820e+00,4.900000095367431641e+00,1.427870044423684703e-10,6.001819596868074314e-10,-1.365339476615190506e-02,-1.889770664274692535e-02,-1.829904690384864807e-02
9.873000000000000000e+03,2.299999952316284180e+00,4.900000095367431641e+00,1.425388695963647478e-10,6.990045764432295528e-10,-1.089808624237775803e-02,-1.895671896636486053e-02,-1.729603670537471771e-02
9.874000000000000000e+03,2.400000095367431641e+00,4.900000095367431641e+00,1.424468182298355146e-10,8.033806953022804009e-10,-7.627562619745731354e-03,-1.898180507123470306e-02,-1.646954193711280823e-02
9.875000000000000000e+03,2.500000000000000000e+00,4.900000095367431641e+00,1.425296825008359747e-10,9.132413159029795224e-10,-3.953532781451940536e-03,-1.897877641022205353e-02,-1.579789444804191589e-02
9.876000000000000000e+03,2.599999904632568359e+00,4.900000095367431641e+00,1.428017148974447537e-10,1.028522378376806046e-09,2.699603464861866087e-05,-1.895258575677871704e-02,-1.526216883212327957e-02
9.877000000000000000e+03,2.700000047683715820e+00,4.900000095367431641e+00,1.432732543715786733e-10,1.149164097213883906e-09,4.230096936225891113e-03,-1.890748739242553711e-02,-1.484534330666065216e-02
9.878000000000000000e+03,2.799999952316284180e+00,4.900000095367431641e+00,1.439512398171416407e-10,1.275109351439596139e-09,8.583426475524902344e-03,-1.884710043668746948e-02,-1.453200913965702057e-02
9.879000000000000000e+03,2.900000095367431641e+00,4.900000095367431641e+00,1.448396680370223066e-10,1.406306626705600138e-09,1.302483770996332169e-02,-1.877457275986671448e-02,-1.430875621736049652e-02
9.880000000000000000e+03,3.000000000000000000e+00,4.900000095367431641e+00,1.459401072212429540e-10,1.542706518087300083e-09,1.750137284398078918e-02,-1.869258098304271698e-02,-1.416315697133541107e-02
9.881000000000000000e+03,3.099999904632568359e+00,4.900000095367431641e+00,1.472519745027156546e-10,1.684264283596803580e-09,2.196810394525527954e-02,-1.860343478620052338e-02,-1.408443506807088852e-02
9.882000000000000000e+03,3.200000047683715820e+00,4.900000095367431641e+00,1.487729245353008878e-10,1.830938622937594573e-09,2.638730779290199280e-02,-1.850913837552070618e-02,-1.406283024698495865e-02
9.883000000000000000e+03,3.299999952316284180e+00,4.900000095367431641e+00,1.504991686829271202e-10,1.982690456259206258e-09,3.072764165699481964e-02,-1.841137371957302094e-02,-1.408944744616746902e-02
9.884000000000000000e+03,3.400000095367431641e+00,4.900000095367431641e+00,1.524256831864079231e-10,2.139485477670177715e-09,3.496332466602325439e-02,-1.831160858273506165e-02,-1.415672525763511658e-02
9.885000000000000000e+03,3.500000000000000000e+00,4.900000095367431641e+00,1.545464867191981284e-10,2.301290491502072655e-09,3.907361254096031189e-02,-1.821106672286987305e-02,-1.425754278898239136e-02
9.886000000000000000e+03,3.599999904632568359e+00,4.900000095367431641e+00,1.568548346764231383e-10,2.468076187867040971e-09,4.304205998778343201e-02,-1.811078190803527832e-02,-1.438592001795768738e-02
9.887000000000000000e+03,3.700000047683715820e+00,4.900000095367431641e+00,1.593433857083326188e-10,2.639816365501701512e-09,4.685607552528381348e-02,-1.801163703203201294e-02,-1.453645713627338409e-02
9.888000000000000000e+03,3.799999952316284180e+00,4.900000095367431641e+00,1.620043682537541940e-10,2.816485711321092822e-09,5.050640925765037537e-02,-1.791433431208133698e-02,-1.470422651618719101e-02
9.889000000000000000e+03,3.900000095367431641e+00,4.900000095367431641e+00,1.648297331957593315e-10,2.998062909043142099e-09,5.398665741086006165e-02,-1.781947538256645203e-02,-1.488526351749897003e-02
9.890000000000000000e+03,4.000000000000000000e+00,4.900000095367431641e+00,1.678112232506023815e-10,3.184526864430381465e-09,5.729297176003456116e-02,-1.772752590477466583e-02,-1.507572364062070847e-02
9.891000000000000000e+03,4.099999904632568359e+00,4.900000095367431641e+00,1.709405117455986556e-10,3.375860035959021843e-09,6.042359396815299988e-02,-1.763885281980037689e-02,-1.527259778231382370e-02
9.892000000000000000e+03,4.199999809265136719e+00,4.900000095367431641e+00,1.742092997636390805e-10,3.572046214372903705e-09,6.337863206863403320e-02,-1.755372993648052216e-02,-1.547311246395111084e-02
9.893000000000000000e+03,4.300000190734863281e+00,4.900000095367431641e+00,1.776093855321292381e-10,3.773072076995731550e-09,6.615967303514480591e-02,-1.747238449752330780e-02,-1.567504554986953735e-02
9.894000000000000000e+03,4.400000095367431641e+00,4.900000095367431641e+00,1.811326227896259411e-10,3.978922080705160624e-09,6.876965612173080444e-02,-1.739494130015373230e-02,-1.587612554430961609e-02
9.895000000000000000e+03,4.500000000000000000e+00,4.900000095367431641e+00,1.847711428304421588e-10,4.189586455538574228e-09,7.121249288320541382e-02,-1.732147671282291412e-02,-1.607496850192546844e-02
9.896000000000000000e+03,4.599999904632568359e+00,4.900000095367431641e+00,1.885172712379201698e-10,4.405054099265726109e-09,7.349302619695663452e-02,-1.725202985107898712e-02,-1.627010479569435120e-02
9.897000000000000000e+03,4.699999809265136719e+00,4.900000095367431641e+00,1.923635833955827934e-10,4.625317018280838965e-09,7.561673223972320557e-02,-1.718657650053501129e-02,-1.646039821207523346e-02
9.898000000000000000e+03,4.800000190734863281e+00,4.900000095367431641e+00,1.963029877538602364e-10,4.850367218978135497e-09,7.758960127830505371e-02,-1.712509617209434509e-02,-1.664503850042819977e-02
9.899000000000000000e+03,4.900000095367431641e+00,4.900000095367431641e+00,2.003286148077876305e-10,5.080196707751838403e-09,7.941805571317672729e-02,-1.706750318408012390e-02,-1.682301983237266541e-02
9.900000000000000000e+03,5.000000000000000000e+00,4.900000095367431641e+00,2.044339836304587266e-10,5.314799267353009782e-09,8.110872656106948853e-02,-1.701369695365428925e-02,-1.699406467378139496e-02
9.901000000000000000e+03,5.099999904632568359e+00,4.900000095367431641e+00,2.086129047285112392e-10,5.554170456889551133e-09,8.266846835613250732e-02,-1.696356385946273804e-02,-1.715769432485103607e-02
9.902000000000000000e+03,5.199999809265136719e+00,4.900000095367431641e+00,2.128595355532780786e-10,5.798305835469363956e-09,8.410419523715972900e-02,-1.691696420311927795e-02,-1.731362752616405487e-02
9.903000000000000000e+03,5.300000190734863281e+00,4.900000095367431641e+00,2.171683527452117346e-10,6.047202294467979300e-09,8.542278409004211426e-02,-1.687377691268920898e-02,-1.746181026101112366e-02
9.904000000000000000e+03,5.400000095367431641e+00,4.900000095367431641e+00,2.215341243783086611e-10,6.300854504814878965e-09,8.663114905357360840e-02,-1.683383807539939880e-02,-1.760188862681388855e-02
9.905000000000000000e+03,5.500000000000000000e+00,4.900000095367431641e+00,2.259519932268361231e-10,6.559261134242433400e-09,8.773598074913024902e-02,-1.679699122905731201e-02,-1.773415133357048035e-02
9.906000000000000000e+03,5.599999904632568359e+00,4.900000095367431641e+00,2.304173518652419261e-10,6.822419074126173655e-09,8.874392509460449219e-02,-1.676307991147041321e-02,-1.785859651863574982e-02
9.907000000000000000e+03,5.699999809265136719e+00,4.900000095367431641e+00,2.349259675682446868e-10,7.090326992198470180e-09,8.966138213872909546e-02,-1.673192903399467468e-02,-1.797535829246044159e-02
9.908000000000000000e+03,5.800000190734863281e+00,4.900000095367431641e+00,2.394738574107435625e-10,7.362984888459322974e-09,9.049452841281890869e-02,-1.670340448617935181e-02,-1.808472350239753723e-02
9.909000000000000000e+03,5.900000095367431641e+00,4.900000095367431641e+00,2.440573299011816744e-10,7.640388766105843388e-09,9.124936908483505249e-02,-1.667733490467071533e-02,-1.818663254380226135e-02
9.910000000000000000e+03,6.000000000000000000e+00,4.900000095367431641e+00,2.486729155926070689e-10,7.922538181048821571e-09,9.193156659603118896e-02,-1.665356196463108063e-02,-1.828160323202610016e-02
9.911000000000000000e+03,6.099999904632568359e+00,4.900000095367431641e+00,2.533175058605507957e-10,8.209434021466677223e-09,9.254660457372665405e-02,-1.663193665444850922e-02,-1.836983114480972290e-02
9.912000000000000000e+03,6.199999809265136719e+00,4.900000095367431641e+00,2.579881308584219823e-10,8.501075399180990644e-09,9.309966117143630981e-02,-1.661230064928531647e-02,-1.845159567892551422e-02
9.913000000000000000e+03,6.300000190734863281e+00,4.900000095367431641e+00,2.626821538065371442e-10,8.797463202370181534e-09,9.359562397003173828e-02,-1.659453846514225006e-02,-1.852730475366115570e-02
9.914000000000000000e+03,6.400000095367431641e+00,4.900000095367431641e+00,2.673970211919396434e-10,9.098593878320571093e-09,9.403915703296661377e-02,-1.657849922776222229e-02,-1.859698258340358734e-02
9.915000000000000000e+03,6.500000000000000000e+00,4.900000095367431641e+00,2.721305403241558452e-10,9.404470091567418422e-09,9.443459659814834595e-02,-1.656405255198478699e-02,-1.866120472550392151e-02
9.916000000000000000e+03,6.599999904632568359e+00,4.900000095367431641e+00,2.768806017794389618e-10,9.715091842110723519e-09,9.478607028722763062e-02,-1.655107550323009491e-02,-1.872020773589611053e-02
9.917000000000000000e+03,6.699999809265136719e+00,4.900000095367431641e+00,2.816453181786471305e-10,1.003045824177206669e-08,9.509740769863128662e-02,-1.653944142162799835e-02,-1.877428591251373291e-02
9.918000000000000000e+03,6.800000190734863281e+00,4.900000095367431641e+00,2.864229964316677979e-10,1.035057195508670702e-08,9.537217766046524048e-02,-1.652906462550163269e-02,-1.882384717464447021e-02
9.919000000000000000e+03,6.900000095367431641e+00,4.900000095367431641e+00,2.912120267151152575e-10,1.067543120569780513e-08,9.561374783515930176e-02,-1.651982590556144714e-02,-1.886890269815921783e-02
9.920000000000000000e+03,7.000000000000000000e+00,4.900000095367431641e+00,2.960110212502087279e-10,1.100503599360536100e-08,9.582518786191940308e-02,-1.651162654161453247e-02,-1.891000755131244659e-02
9.921000000000000000e+03,7.099999904632568359e+00,4.900000095367431641e+00,3.008186477693186589e-10,1.133938809516621404e-08,9.600941091775894165e-02,-1.650437526404857635e-02,-1.894735731184482574e-02
9.922000000000000000e+03,7.199999809265136719e+00,4.900000095367431641e+00,3.056338238049960410e-10,1.167848751038036426e-08,9.616907685995101929e-02,-1.649797894060611725e-02,-1.898121088743209839e-02
9.923000000000000000e+03,7.300000190734863281e+00,4.900000095367431641e+00,3.104554668897918646e-10,1.202233690378307074e-08,9.630662202835083008e-02,-1.649237982928752899e-02,-1.901192590594291687e-02
9.924000000000000000e+03,7.400000095367431641e+00,4.900000095367431641e+00,3.152826333341351983e-10,1.237093361083907439e-08,9.642434120178222656e-02,-1.648749038577079773e-02,-1.903946138918399811e-02
9.925000000000000000e+03,7.500000000000000000e+00,4.900000095367431641e+00,3.201145182263331890e-10,1.272427851972679491e-08,9.652428328990936279e-02,-1.648324169218540192e-02,-1.906431652605533600e-02
9.926000000000000000e+03,7.599999904632568359e+00,4.900000095367431641e+00,3.249503166546929833e-10,1.308237429498149140e-08,9.660838544368743896e-02,-1.647957041859626770e-02,-1.908662728965282440e-02
9.927000000000000000e+03,7.699999809265136719e+00,4.900000095367431641e+00,3.297894179965510375e-10,1.344521916024632446e-08,9.667839854955673218e-02,-1.647640764713287354e-02,-1.910659670829772949e-02
9.928000000000000000e+03,7.800000190734863281e+00,4.900000095367431641e+00,3.346312671403950390e-10,1.381281755641339259e-08,9.673588722944259644e-02,-1.647372543811798096e-02,-1.912451721727848053e-02
9.929000000000000000e+03,7.900000095367431641e+00,4.900000095367431641e+00,3.394752534635614438e-10,1.418516504259059730e-08,9.678234905004501343e-02,-1.647146046161651611e-02,-1.914029009640216827e-02
9.930000000000000000e+03,8.000000000000000000e+00,4.900000095367431641e+00,3.443209606324160177e-10,1.456226428331319767e-08,9.681907296180725098e-02,-1.646954938769340515e-02,-1.915434561669826508e-02
9.931000000000000000e+03,8.100000381469726562e+00,4.900000095367431641e+00,3.491680000689001417e-10,1.494411705493803311e-08,9.684723615646362305e-02,-1.646799407899379730e-02,-1.916688494384288788e-02
9.932000000000000000e+03,8.199999809265136719e+00,4.900000095367431641e+00,3.540159831949551972e-10,1.533071980475142482e-08,9.686801582574844360e-02,-1.646670512855052948e-02,-1.917763985693454742e-02
9.933000000000000000e+03,8.300000190734863281e+00,4.900000095367431641e+00,3.588646602104006433e-10,1.572207786182389100e-08,9.688226133584976196e-02,-1.646569557487964630e-02,-1.918743178248405457e-02
9.934000000000000000e+03,8.399999618530273438e+00,4.900000095367431641e+00,3.637136980483290927e-10,1.611818767344175285e-08,9.689100086688995361e-02,-1.646489277482032776e-02,-1.919562369585037231e-02
9.935000000000000000e+03,8.500000000000000000e+00,4.900000095367431641e+00,3.685629579308624670e-10,1.651905456867552857e-08,9.689489006996154785e-02,-1.646428555250167847e-02,-1.920308172702789307e-02
9.936000000000000000e+03,8.600000381469726562e+00,4.900000095367431641e+00,3.734122178133958414e-10,1.692467499481153936e-08,9.689471870660781860e-02,-1.646387763321399689e-02,-1.920938491821289062e-02
9.937000000000000000e+03,8.699999809265136719e+00,4.900000095367431641e+00,3.782612556513242907e-10,1.733504717549294583e-08,9.689112752676010132e-02,-1.646359078586101532e-02,-1.921458728611469269e-02
9.938000000000000000e+03,8.800000190734863281e+00,4.900000095367431641e+00,3.831100159334965838e-10,1.775017821614710556e-08,9.688459336757659912e-02,-1.646345481276512146e-02,-1.921937800943851471e-02
9.939000000000000000e+03,8.899999618530273438e+00,4.900000095367431641e+00,3.879583043708834111e-10,1.817006101134666096e-08,9.687575697898864746e-02,-1.646340638399124146e-02,-1.922307536005973816e-02
9.940000000000000000e+03,9.000000000000000000e+00,4.900000095367431641e+00,3.928061209634847728e-10,1.859470444287580904e-08,9.686492383480072021e-02,-1.646345108747482300e-02,-1.922650635242462158e-02
9.941000000000000000e+03,9.100000381469726562e+00,4.900000095367431641e+00,3.976533546889982063e-10,1.902410140530719218e-08,9.685256332159042358e-02,-1.646360009908676147e-02,-1.922920905053615570e-02
9.942000000000000000e+03,9.199999809265136719e+00,4.900000095367431641e+00,4.024999222806968646e-10,1.945825367499764980e-08,9.683903306722640991e-02,-1.646378636360168457e-02,-1.923120394349098206e-02
9.943000000000000000e+03,9.300000190734863281e+00,4.900000095367431641e+00,4.073458237385807479e-10,1.989716480466086068e-08,9.682454168796539307e-02,-1.646404713392257690e-02,-1.923314295709133148e-02
9.944000000000000000e+03,9.399999618530273438e+00,4.900000095367431641e+00,4.121909757959230092e-10,2.034082768886946724e-08,9.680947661399841309e-02,-1.646433211863040924e-02,-1.923431456089019775e-02
9.945000000000000000e+03,9.500000000000000000e+00,4.900000095367431641e+00,4.170354339638748797e-10,2.078925298576450587e-08,9.679394960403442383e-02,-1.646464690566062927e-02,-1.923551782965660095e-02
9.946000000000000000e+03,9.600000381469726562e+00,4.900000095367431641e+00,4.218791704868607439e-10,2.124243536627545836e-08,9.677822142839431763e-02,-1.646501757204532623e-02,-1.923626288771629333e-02
9.947000000000000000e+03,9.699999809265136719e+00,4.900000095367431641e+00,4.267221020981537549e-10,2.170037127768864593e-08,9.676246345043182373e-02,-1.646537706255912781e-02,-1.923654414713382721e-02
9.948000000000000000e+03,9.800000190734863281e+00,4.900000095367431641e+00,4.315643120644807595e-10,2.216306782543142617e-08,9.674673527479171753e-02,-1.646577194333076477e-02,-1.923699118196964264e-02
9.949000000000000000e+03,9.899999618530273438e+00,4.900000095367431641e+00,4.364057726302661422e-10,2.263051790407644148e-08,9.673128277063369751e-02,-1.646615378558635712e-02,-1.923687011003494263e-02
9.950000000000000000e+03,1.000000000000000000e+01,4.900000095367431641e+00,4.412465670622367497e-10,2.310273217176472826e-08,9.671608358621597290e-02,-1.646653749048709869e-02,-1.923695765435695648e-02
9.951000000000000000e+03,1.010000038146972656e+01,4.900000095367431641e+00,4.460866398492413509e-10,2.357970174671208952e-08,9.670127928256988525e-02,-1.646694913506507874e-02,-1.923675462603569031e-02
9.952000000000000000e+03,1.019999980926513672e+01,4.900000095367431641e+00,4.509260187468555614e-10,2.406142662891852524e-08,9.668695926666259766e-02,-1.646732725203037262e-02,-1.923621445894241333e-02
9.953000000000000000e+03,1.030000019073486328e+01,4.900000095367431641e+00,4.557647592662306124e-10,2.454791392381139303e-08,9.667307883501052856e-02,-1.646772213280200958e-02,-1.923599094152450562e-02
9.954000000000000000e+03,1.039999961853027344e+01,4.900000095367431641e+00,4.606028336517908883e-10,2.503915474960649590e-08,9.665980935096740723e-02,-1.646808534860610962e-02,-1.923529244959354401e-02
9.955000000000000000e+03,1.050000000000000000e+01,4.900000095367431641e+00,4.654403529258388517e-10,2.553515798808803083e-08,9.664705395698547363e-02,-1.646843738853931427e-02,-1.923492550849914551e-02
9.956000000000000000e+03,1.060000038146972656e+01,4.900000095367431641e+00,4.702773170883745024e-10,2.603592186289915844e-08,9.663489460945129395e-02,-1.646880805492401123e-02,-1.923434250056743622e-02
9.957000000000000000e+03,1.069999980926513672e+01,4.900000095367431641e+00,4.751136706282466093e-10,2.654143749225568172e-08,9.662336111068725586e-02,-1.646913401782512665e-02,-1.923350431025028229e-02
9.958000000000000000e+03,1.080000019073486328e+01,4.900000095367431641e+00,4.799495245677576349e-10,2.705171731065547647e-08,9.661237150430679321e-02,-1.646947115659713745e-02,-1.923305168747901917e-02
9.959000000000000000e+03,1.089999961853027344e+01,4.900000095367431641e+00,4.847848789069075792e-10,2.756675065995750629e-08,9.660205990076065063e-02,-1.646977104246616364e-02,-1.923218555748462677e-02
9.960000000000000000e+03,1.100000000000000000e+01,4.900000095367431641e+00,4.896198446679989047e-10,2.808654819830280758e-08,9.659227728843688965e-02,-1.647005602717399597e-02,-1.923170126974582672e-02
9.961000000000000000e+03,1.110000038146972656e+01,4.900000095367431641e+00,4.944543663398803801e-10,2.861110459662086214e-08,9.658309817314147949e-02,-1.647035405039787292e-02,-1.923104748129844666e-02
9.962000000000000000e+03,1.119999980926513672e+01,4.900000095367431641e+00,4.992883884114007742e-10,2.914041452584115177e-08,9.657452255487442017e-02,-1.647060737013816833e-02,-1.923017762601375580e-02
9.963000000000000000e+03,1.130000019073486328e+01,4.900000095367431641e+00,5.041221329271650120e-10,2.967448686774787348e-08,9.656643122434616089e-02,-1.647087000310420990e-02,-1.922972500324249268e-02
9.964000000000000000e+03,1.139999961853027344e+01,4.900000095367431641e+00,5.089554333537193997e-10,3.021331451691366965e-08,9.655895829200744629e-02,-1.647109538316726685e-02,-1.922888681292533875e-02
9.965000000000000000e+03,1.150000000000000000e+01,4.900000095367431641e+00,5.137884562245176312e-10,3.075690813147957670e-08,9.655193984508514404e-02,-1.647130586206912994e-02,-1.922845467925071716e-02
9.966000000000000000e+03,1.160000038146972656e+01,4.900000095367431641e+00,5.186212015395597064e-10,3.130525882966139761e-08,9.654543548822402954e-02,-1.647153124213218689e-02,-1.922787353396415710e-02
9.967000000000000000e+03,1.169999980926513672e+01,4.900000095367431641e+00,5.234536137876943940e-10,3.185836305874545360e-08,9.653943032026290894e-02,-1.647171378135681152e-02,-1.922708936035633087e-02
9.968000000000000000e+03,1.180000019073486328e+01,4.900000095367431641e+00,5.282858039912241566e-10,3.241623147687278106e-08,9.653381258249282837e-02,-1.647190563380718231e-02,-1.922673732042312622e-02
9.969000000000000000e+03,1.189999961853027344e+01,4.900000095367431641e+00,5.331176611278465316e-10,3.297885342590234359e-08,9.652869403362274170e-02,-1.647206395864486694e-02,-1.922600902616977692e-02
9.970000000000000000e+03,1.200000000000000000e+01,4.900000095367431641e+00,5.379494072421664441e-10,3.354623956397517759e-08,9.652392566204071045e-02,-1.647220738232135773e-02,-1.922569423913955688e-02
9.971000000000000000e+03,1.210000038146972656e+01,4.900000095367431641e+00,5.427808758007302004e-10,3.411838633837760426e-08,9.651955217123031616e-02,-1.647237129509449005e-02,-1.922523230314254761e-02
9.972000000000000000e+03,1.219999980926513672e+01,4.900000095367431641e+00,5.476121778258402628e-10,3.469528664368226600e-08,9.651556611061096191e-02,-1.647249422967433929e-02,-1.922457478940486908e-02
9.973000000000000000e+03,1.230000019073486328e+01,4.900000095367431641e+00,5.524433133174966315e-10,3.527694758531652042e-08,9.651184827089309692e-02,-1.647262834012508392e-02,-1.922435127198696136e-02
9.974000000000000000e+03,1.239999961853027344e+01,4.900000095367431641e+00,5.572742267645480752e-10,3.586336561056668870e-08,9.650852531194686890e-02,-1.647273264825344086e-02,-1.922374963760375977e-02
9.975000000000000000e+03,1.250000000000000000e+01,4.900000095367431641e+00,5.621050847004482875e-10,3.645454782486012846e-08,9.650544077157974243e-02,-1.647282578051090240e-02,-1.922356151044368744e-02
9.976000000000000000e+03,1.260000038146972656e+01,4.900000095367431641e+00,5.669357761028948062e-10,3.705049067548316089e-08,9.650264680385589600e-02,-1.647293940186500549e-02,-1.922322623431682587e-02
9.977000000000000000e+03,1.269999980926513672e+01,4.900000095367431641e+00,5.717663564830388623e-10,3.765118350429474958e-08,9.650012850761413574e-02,-1.647301577031612396e-02,-1.922269351780414581e-02
9.978000000000000000e+03,1.280000019073486328e+01,4.900000095367431641e+00,5.765968258408804559e-10,3.825664407486328855e-08,9.649778902530670166e-02,-1.647310703992843628e-02,-1.922258734703063965e-02
9.979000000000000000e+03,1.289999961853027344e+01,4.900000095367431641e+00,5.814271841764195869e-10,3.886685817633406259e-08,9.649574011564254761e-02,-1.647317036986351013e-02,-1.922210492193698883e-02
9.980000000000000000e+03,1.300000000000000000e+01,4.900000095367431641e+00,5.862574870008074868e-10,3.948183646684810810e-08,9.649384021759033203e-02,-1.647322624921798706e-02,-1.922202855348587036e-02
9.981000000000000000e+03,1.310000038146972656e+01,4.900000095367431641e+00,5.910876788028929241e-10,4.010157184097806748e-08,9.649213403463363647e-02,-1.647330448031425476e-02,-1.922180317342281342e-02
9.982000000000000000e+03,1.319999980926513672e+01,4.900000095367431641e+00,5.959177595826758989e-10,4.072606429872394074e-08,9.649062901735305786e-02,-1.647334918379783630e-02,-1.922137290239334106e-02
9.983000000000000000e+03,1.330000019073486328e+01,4.900000095367431641e+00,6.007478403624588736e-10,4.135531739279940666e-08,9.648922085762023926e-02,-1.647341065108776093e-02,-1.922136917710304260e-02
9.984000000000000000e+03,1.339999961853027344e+01,4.900000095367431641e+00,6.055778101199393859e-10,4.198932757049078646e-08,9.648802876472473145e-02,-1.647344604134559631e-02,-1.922097988426685333e-02
9.985000000000000000e+03,1.350000000000000000e+01,4.900000095367431641e+00,6.104077798774198982e-10,4.262810193722543772e-08,9.648691117763519287e-02,-1.647347398102283478e-02,-1.922099664807319641e-02
9.986000000000000000e+03,1.360000038146972656e+01,4.900000095367431641e+00,6.152376941237491792e-10,4.327163338757600286e-08,9.648592025041580200e-02,-1.647352986037731171e-02,-1.922085508704185486e-02
9.987000000000000000e+03,1.369999980926513672e+01,4.900000095367431641e+00,6.200675528589272290e-10,4.391991836882880307e-08,9.648507833480834961e-02,-1.647355221211910248e-02,-1.922050677239894867e-02
9.988000000000000000e+03,1.380000019073486328e+01,4.900000095367431641e+00,6.248974115941052787e-10,4.457297109183855355e-08,9.648425877094268799e-02,-1.647359319031238556e-02,-1.922057941555976868e-02
9.989000000000000000e+03,1.389999961853027344e+01,4.900000095367431641e+00,6.297271593069808659e-10,4.523077379303686030e-08,9.648361057043075562e-02,-1.647360995411872864e-02,-1.922026276588439941e-02
9.990000000000000000e+03,1.400000000000000000e+01,4.900000095367431641e+00,6.345569625310076844e-10,4.589334423599211732e-08,9.648297727108001709e-02,-1.647362299263477325e-02,-1.922034472227096558e-02
9.991000000000000000e+03,1.410000038146972656e+01,4.900000095367431641e+00,6.393867102438832717e-10,4.656067176256328821e-08,9.648243337869644165e-02,-1.647366210818290710e-02,-1.922026649117469788e-02
9.992000000000000000e+03,1.419999980926513672e+01,4.900000095367431641e+00,6.442164024456076277e-10,4.723275282003669417e-08,9.648198634386062622e-02,-1.647367142140865326e-02,-1.921997778117656708e-02
9.993000000000000000e+03,1.430000019073486328e+01,4.900000095367431641e+00,6.490460946473319837e-10,4.790960161926705041e-08,9.648152440786361694e-02,-1.647369936108589172e-02,-1.922010257840156555e-02
9.994000000000000000e+03,1.439999961853027344e+01,4.900000095367431641e+00,6.538757868490563396e-10,4.859120039668596291e-08,9.648119658231735229e-02,-1.647370681166648865e-02,-1.921983622014522552e-02
9.995000000000000000e+03,1.450000000000000000e+01,4.900000095367431641e+00,6.587054235396294644e-10,4.927756336314814689e-08,9.648086130619049072e-02,-1.647370867431163788e-02,-1.921996288001537323e-02
9.996000000000000000e+03,1.460000038146972656e+01,4.900000095367431641e+00,6.635351157413538203e-10,4.996868696593992354e-08,9.648057818412780762e-02,-1.647374033927917480e-02,-1.921992562711238861e-02
9.997000000000000000e+03,1.469999980926513672e+01,4.900000095367431641e+00,6.683647524319269451e-10,5.066456409963393526e-08,9.648036211729049683e-02,-1.647374033927917480e-02,-1.921967044472694397e-02
9.998000000000000000e+03,1.480000019073486328e+01,4.900000095367431641e+00,6.731943891225000698e-10,5.136520897508489725e-08,9.648011624813079834e-02,-1.647376269102096558e-02,-1.921982690691947937e-02
9.999000000000000000e+03,1.489999961853027344e+01,4.900000095367431641e+00,6.780239703019219633e-10,5.207060382872441551e-08,9.647998958826065063e-02,-1.647376269102096558e-02,-1.921958290040493011e-02
1.000000000000000000e+04,1.500000000000000000e+01,4.900000095367431641e+00,6.828536069924950880e-10,5.278076287140720524e-08,9.647983312606811523e-02,-1.647375896573066711e-02,-1.921972818672657013e-02
1.000100000000000000e+04,1.510000038146972656e+01,4.900000095367431641e+00,6.876832436830682127e-10,5.349568255041958764e-08,9.647972881793975830e-02,-1.647378690540790558e-02,-1.921970210969448090e-02
1.000200000000000000e+04,1.519999980926513672e+01,4.900000095367431641e+00,6.925128248624901062e-10,5.421535576033420512e-08,9.647969156503677368e-02,-1.647378131747245789e-02,-1.921945065259933472e-02
1.000300000000000000e+04,1.530000019073486328e+01,4.900000095367431641e+00,6.973424615530632309e-10,5.493979315929209406e-08,9.647962450981140137e-02,-1.647379994392395020e-02,-1.921960152685642242e-02
1.000400000000000000e+04,1.539999961853027344e+01,4.900000095367431641e+00,7.021720427324851244e-10,5.566898408915221808e-08,9.647968411445617676e-02,-1.647379621863365173e-02,-1.921934261918067932e-02
1.000500000000000000e+04,1.550000000000000000e+01,4.900000095367431641e+00,7.070016794230582491e-10,5.640293920805561356e-08,9.647973626852035522e-02,-1.647378876805305481e-02,-1.921946182847023010e-02
1.000600000000000000e+04,1.560000038146972656e+01,4.900000095367431641e+00,7.118313161136313738e-10,5.714165496328860172e-08,9.647987037897109985e-02,-1.647381111979484558e-02,-1.921939477324485779e-02
1.000700000000000000e+04,1.569999980926513672e+01,4.900000095367431641e+00,7.166608972930532673e-10,5.788512424942382495e-08,9.648010134696960449e-02,-1.647380180656909943e-02,-1.921908557415008545e-02
1.000800000000000000e+04,1.580000019073486328e+01,4.900000095367431641e+00,7.214905894947776233e-10,5.863335772460231965e-08,9.648036211729049683e-02,-1.647381484508514404e-02,-1.921916007995605469e-02
1.000900000000000000e+04,1.589999961853027344e+01,4.900000095367431641e+00,7.263202261853507480e-10,5.938634117796937062e-08,9.648080915212631226e-02,-1.647380366921424866e-02,-1.921880245208740234e-02
1.001000000000000000e+04,1.600000000000000000e+01,4.900000095367431641e+00,7.311499183870751040e-10,6.014409592580705066e-08,9.648133814334869385e-02,-1.647378876805305481e-02,-1.921879500150680542e-02
1.001100000000000000e+04,1.610000038146972656e+01,4.900000095367431641e+00,7.359796660999506912e-10,6.090660775726064458e-08,9.648205339908599854e-02,-1.647377386689186096e-02,-1.921856030821800232e-02
1.001200000000000000e+04,1.620000076293945312e+01,4.900000095367431641e+00,7.408094693239775097e-10,6.167387311961647356e-08,9.648291021585464478e-02,-1.647380366921424866e-02,-1.921829022467136383e-02
1.001300000000000000e+04,1.629999923706054688e+01,4.900000095367431641e+00,7.456391615257018657e-10,6.244589201287453761e-08,9.648409485816955566e-02,-1.647377200424671173e-02,-1.921751908957958221e-02
1.001400000000000000e+04,1.639999961853027344e+01,4.900000095367431641e+00,7.504690757720311467e-10,6.322267864788955194e-08,9.648548066616058350e-02,-1.647373288869857788e-02,-1.921745389699935913e-02
1.001500000000000000e+04,1.650000000000000000e+01,4.900000095367431641e+00,7.552991010406628902e-10,6.400422591923415894e-08,9.648727625608444214e-02,-1.647369936108589172e-02,-1.921692304313182831e-02
1.001600000000000000e+04,1.660000038146972656e+01,4.900000095367431641e+00,7.601291818204458650e-10,6.479053382690835861e-08,9.648946672677993774e-02,-1.647365279495716095e-02,-1.921626739203929901e-02
1.001700000000000000e+04,1.670000076293945312e+01,4.900000095367431641e+00,7.649593736225313023e-10,6.558160237091215095e-08,9.649210423231124878e-02,-1.647363975644111633e-02,-1.921549811959266663e-02
1.001800000000000000e+04,1.679999923706054688e+01,4.900000095367431641e+00,7.697896764469192021e-10,6.637741023496346315e-08,9.649543464183807373e-02,-1.647355780005455017e-02,-1.921413466334342957e-02
1.001900000000000000e+04,1.689999961853027344e+01,4.900000095367431641e+00,7.746202568270632582e-10,6.717800005162644084e-08,9.649938344955444336e-02,-1.647345349192619324e-02,-1.921336166560649872e-02
1.002000000000000000e+04,1.700000000000000000e+01,4.900000095367431641e+00,7.794510037406610081e-10,6.798334339919165359e-08,9.650424867868423462e-02,-1.647334173321723938e-02,-1.921199262142181396e-02
1.002100000000000000e+04,1.710000038146972656e+01,4.900000095367431641e+00,7.842820837211661456e-10,6.879344738308645901e-08,9.651008993387222290e-02,-1.647319644689559937e-02,-1.921034231781959534e-02
1.002200000000000000e+04,1.720000076293945312e+01,4.900000095367431641e+00,7.891134967685786705e-10,6.960831200331085711e-08,9.651707857847213745e-02,-1.647306233644485474e-02,-1.920839771628379822e-02
1.002300000000000000e+04,1.729999923706054688e+01,4.900000095367431641e+00,7.939451873717473518e-10,7.042791594358277507e-08,9.652555733919143677e-02,-1.647282950580120087e-02,-1.920564100146293640e-02
1.002400000000000000e+04,1.739999961853027344e+01,4.900000095367431641e+00,7.987774885975795769e-10,7.125230183646635851e-08,9.653561562299728394e-02,-1.647254079580307007e-02,-1.920322328805923462e-02
1.002500000000000000e+04,1.750000000000000000e+01,4.900000095367431641e+00,8.036103449349241146e-10,7.208144126025217702e-08,9.654770046472549438e-02,-1.647219806909561157e-02,-1.919991150498390198e-02
1.002600000000000000e+04,1.760000038146972656e+01,4.900000095367431641e+00,8.084438674060834273e-10,7.291534132036758820e-08,9.656206518411636353e-02,-1.647176593542098999e-02,-1.919596455991268158e-02
1.002700000000000000e+04,1.770000076293945312e+01,4.900000095367431641e+00,8.132781670333599777e-10,7.375400201681259205e-08,9.657911211252212524e-02,-1.647127419710159302e-02,-1.919130235910415649e-02
1.002800000000000000e+04,1.779999923706054688e+01,4.900000095367431641e+00,8.181133548390562282e-10,7.459740203330511576e-08,9.659945964813232422e-02,-1.647059246897697449e-02,-1.918532885611057281e-02
1.002900000000000000e+04,1.789999961853027344e+01,4.900000095367431641e+00,8.229497638900795664e-10,7.544558400240930496e-08,9.662349522113800049e-02,-1.646974124014377594e-02,-1.917909458279609680e-02
1.003000000000000000e+04,1.800000000000000000e+01,4.900000095367431641e+00,8.277875607198836860e-10,7.629851950241572922e-08,9.665205329656600952e-02,-1.646868512034416199e-02,-1.917123608291149139e-02
1.003100000000000000e+04,1.810000038146972656e+01,4.900000095367431641e+00,8.326269118619222809e-10,7.715621563875174616e-08,9.668585658073425293e-02,-1.646734587848186493e-02,-1.916185952723026276e-02
1.003200000000000000e+04,1.820000076293945312e+01,4.900000095367431641e+00,8.374681503831027385e-10,7.801867241141735576e-08,9.672583639621734619e-02,-1.646569184958934784e-02,-1.915067993104457855e-02
1.003300000000000000e+04,1.829999923706054688e+01,4.900000095367431641e+00,8.423114983280299839e-10,7.888587560955784284e-08,9.677328914403915405e-02,-1.646350510418415070e-02,-1.913684047758579254e-02
1.003400000000000000e+04,1.839999961853027344e+01,4.900000095367431641e+00,8.471576218305187922e-10,7.975784654945528018e-08,9.682945162057876587e-02,-1.646068692207336426e-02,-1.912104524672031403e-02
1.003500000000000000e+04,1.850000000000000000e+01,4.900000095367431641e+00,8.520068539574765509e-10,8.063458523110966780e-08,9.689619392156600952e-02,-1.645702868700027466e-02,-1.910146884620189667e-02
1.003600000000000000e+04,1.860000038146972656e+01,4.900000095367431641e+00,8.568597498204155727e-10,8.151607744366629049e-08,9.697555750608444214e-02,-1.645220071077346802e-02,-1.907758787274360657e-02
1.003700000000000000e+04,1.870000076293945312e+01,4.900000095367431641e+00,8.617171420866043263e-10,8.240232318712514825e-08,9.707018733024597168e-02,-1.644579321146011353e-02,-1.904824748635292053e-02
1.003800000000000000e+04,1.879999923706054688e+01,4.900000095367431641e+00,8.665796413787063557e-10,8.329331535605888348e-08,9.718360751867294312e-02,-1.643702015280723572e-02,-1.901135407388210297e-02
1.003900000000000000e+04,1.889999961853027344e+01,4.900000095367431641e+00,8.714485799643512109e-10,8.418908237217692658e-08,9.732000529766082764e-02,-1.642487756907939911e-02,-1.896582357585430145e-02
1.004000000000000000e+04,1.900000000000000000e+01,4.900000095367431641e+00,8.763251790888659798e-10,8.508960291919720476e-08,9.748528152704238892e-02,-1.640771143138408661e-02,-1.890718564391136169e-02
1.004100000000000000e+04,1.910000038146972656e+01,4.900000095367431641e+00,8.812109930644851374e-10,8.599488410254707560e-08,9.768702089786529541e-02,-1.638276875019073486e-02,-1.883087493479251862e-02
1.004200000000000000e+04,1.920000076293945312e+01,4.900000095367431641e+00,8.861081313149554717e-10,8.690491171137182391e-08,9.793569892644882202e-02,-1.634543016552925110e-02,-1.872940920293331146e-02
1.004300000000000000e+04,1.929999923706054688e+01,4.900000095367431641e+00,8.910190918420823891e-10,8.781967864024409209e-08,9.824605286121368408e-02,-1.628727465867996216e-02,-1.859045401215553284e-02
1.004400000000000000e+04,1.939999961853027344e+01,4.900000095367431641e+00,8.959474828706959215e-10,8.873920620544595295e-08,9.863843768835067749e-02,-1.619275286793708801e-02,-1.839583180844783783e-02
1.004500000000000000e+04,1.950000000000000000e+01,4.900000095367431641e+00,9.008975787594408757e-10,8.966348019612269127e-08,9.914129227399826050e-02,-1.603110134601593018e-02,-1.811200939118862152e-02
1.004600000000000000e+04,1.960000038146972656e+01,4.900000095367431641e+00,9.058742089784743712e-10,9.059247929599223426e-08,9.978803992271423340e-02,-1.573915407061576843e-02,-1.768597960472106934e-02
1.004700000000000000e+04,1.970000076293945312e+01,4.900000095367431641e+00,9.108808707303239771e-10,9.152620350505458191e-08,1.005802527070045471e-01,-1.519714295864105225e-02,-1.704936660826206207e-02
1.004800000000000000e+04,1.979999923706054688e+01,4.900000095367431641e+00,9.159073499631631421e-10,9.246457466360880062e-08,1.012770384550094604e-01,-1.426758617162704468e-02,-1.623547635972499847e-02
1.004900000000000000e+04,1.989999961853027344e+01,4.900000095367431641e+00,9.208702689278425169e-10,9.340748619024452637e-08,9.996274858713150024e-02,-1.419415976852178574e-02,-1.655855588614940643e-02
1.005000000000000000e+04,2.000000000000000000e+01,4.900000095367431641e+00,9.256126975998313355e-10,9.435450465389294550e-08,9.150824695825576782e-02,-2.694121189415454865e-02,-2.255140617489814758e-02
1.005100000000000000e+04,0.000000000000000000e+00,5.000000000000000000e+00,0.000000000000000000e+00,-0.000000000000000000e+00,1.127676606178283691e+00,3.383029997348785400e-01,-3.653440773487091064e-01
1.005200000000000000e+04,1.000000014901161194e-01,5.000000000000000000e+00,4.886598764519689553e-11,-4.523307770010198681e-11,1.067247986793518066e+00,1.368741840124130249e-01,-1.902812570333480835e-01
1.005300000000000000e+04,2.000000029802322388e-01,5.000000000000000000e+00,7.748375552285580170e-11,-8.067418261203940233e-11,6.180626749992370605e-01,5.696527287364006042e-02,-1.007609963417053223e-01
1.005400000000000000e+04,3.000000119209289551e-01,5.000000000000000000e+00,9.595001876361308746e-11,-1.102177654699332265e-10,3.929583132266998291e-01,1.722263544797897339e-02,-8.225725591182708740e-02
1.005500000000000000e+04,4.000000059604644775e-01,5.000000000000000000e+00,1.081967709870568228e-10,-1.327381676796690613e-10,2.582638561725616455e-01,3.606786252930760384e-03,-6.729660928249359131e-02
1.005600000000000000e+04,5.000000000000000000e-01,5.000000000000000000e+00,1.160027421343023946e-10,-1.483063255536265501e-10,1.626371443271636963e-01,-4.294073209166526794e-03,-5.838943645358085632e-02
1.005700000000000000e+04,6.000000238418579102e-01,5.000000000000000000e+00,1.204666505438822810e-10,-1.568786767158769635e-10,9.103086590766906738e-02,-9.036980569362640381e-03,-5.181224644184112549e-02
1.005800000000000000e+04,6.999999880790710449e-01,5.000000000000000000e+00,1.223383200299466012e-10,-1.584769537821273389e-10,3.563665598630905151e-02,-1.222873106598854065e-02,-4.677288234233856201e-02
1.005900000000000000e+04,8.000000119209289551e-01,5.000000000000000000e+00,1.221718698429796746e-10,-1.531457877179676075e-10,-7.834428921341896057e-03,-1.446315925568342209e-02,-4.271778091788291931e-02
1.006000000000000000e+04,8.999999761581420898e-01,5.000000000000000000e+00,1.203943056360401442e-10,-1.409503486149432661e-10,-4.215260595083236694e-02,-1.607853919267654419e-02,-3.936521708965301514e-02
1.006100000000000000e+04,1.000000000000000000e+00,5.000000000000000000e+00,1.173445784985460705e-10,-1.219690459741684663e-10,-6.922406703233718872e-02,-1.726595871150493622e-02,-3.653679043054580688e-02
1.006200000000000000e+04,1.100000023841857910e+00,5.000000000000000000e+00,1.132971702566543115e-10,-9.628930985883243920e-11,-9.043912589550018311e-02,-1.814564317464828491e-02,-3.411653265357017517e-02
1.006300000000000000e+04,1.200000047683715820e+00,5.000000000000000000e+00,1.084774700621515819e-10,-6.400417695839877297e-11,-1.068526729941368103e-01,-1.879669353365898132e-02,-3.202425315976142883e-02
1.006400000000000000e+04,1.299999952316284180e+00,5.000000000000000000e+00,1.030723006945066800e-10,-2.520996432442412782e-11,-1.192907914519309998e-01,-1.927372440695762634e-02,-3.020219132304191589e-02
1.006500000000000000e+04,1.399999976158142090e+00,5.000000000000000000e+00,9.723746807743793852e-11,1.999578454203732036e-11,-1.284162551164627075e-01,-1.961575448513031006e-02,-2.860735729336738586e-02
1.006600000000000000e+04,1.500000000000000000e+00,5.000000000000000000e+00,9.110336790518758221e-11,7.151534919813684610e-11,-1.347714662551879883e-01,-1.985163427889347076e-02,-2.720652334392070770e-02
1.006700000000000000e+04,1.600000023841857910e+00,5.000000000000000000e+00,8.477927387895434208e-11,1.292520951379216854e-10,-1.388068646192550659e-01,-2.000316418707370758e-02,-2.597354166209697723e-02
1.006800000000000000e+04,1.700000047683715820e+00,5.000000000000000000e+00,7.835665449817952322e-11,1.931112630915166051e-10,-1.409012377262115479e-01,-2.008723653852939606e-02,-2.488723024725914001e-02
1.006900000000000000e+04,1.799999952316284180e+00,5.000000000000000000e+00,7.191185147359391294e-11,2.630003992365459453e-10,-1.413760930299758911e-01,-2.011718600988388062e-02,-2.393006533384323120e-02
1.007000000000000000e+04,1.899999976158142090e+00,5.000000000000000000e+00,6.550827935658531942e-11,3.388302971529810748e-10,-1.405060887336730957e-01,-2.010366320610046387e-02,-2.308740653097629547e-02
1.007100000000000000e+04,2.000000000000000000e+00,5.000000000000000000e+00,5.919824352940139534e-11,4.205148174118988891e-10,-1.385273784399032593e-01,-2.005536854267120361e-02,-2.234659157693386078e-02
1.007200000000000000e+04,2.099999904632568359e+00,5.000000000000000000e+00,5.302445635346764163e-11,5.079713316646916610e-10,-1.356434971094131470e-01,-1.997942291200160980e-02,-2.169673703610897064e-02
1.007300000000000000e+04,2.200000047683715820e+00,5.000000000000000000e+00,4.702131739531267840e-11,6.011213748990940076e-10,-1.320302188396453857e-01,-1.988169178366661072e-02,-2.112836576998233795e-02
1.007400000000000000e+04,2.299999952316284180e+00,5.000000000000000000e+00,4.121609997742581299e-11,6.998895907273094963e-10,-1.278398185968399048e-01,-1.976714842021465302e-02,-2.063286863267421722e-02
1.007500000000000000e+04,2.400000095367431641e+00,5.000000000000000000e+00,3.562982547888893237e-11,8.042055354984256610e-10,-1.232035458087921143e-01,-1.963984593749046326e-02,-2.020287327468395233e-02
1.007600000000000000e+04,2.500000000000000000e+00,5.000000000000000000e+00,3.027820355550048248e-11,9.140016521413940609e-10,-1.182351484894752502e-01,-1.950330846011638641e-02,-1.983143389225006104e-02
1.007700000000000000e+04,2.599999904632568359e+00,5.000000000000000000e+00,2.517230000831371939e-11,1.029215268566474606e-09,-1.130322068929672241e-01,-1.936040818691253662e-02,-1.951257698237895966e-02
1.007800000000000000e+04,2.700000047683715820e+00,5.000000000000000000e+00,2.031922026468624409e-11,1.149787376419908469e-09,-1.076786071062088013e-01,-1.921358332037925720e-02,-1.924075186252593994e-02
1.007900000000000000e+04,2.799999952316284180e+00,5.000000000000000000e+00,1.572271826622007040e-11,1.275662242505859467e-09,-1.022461280226707458e-01,-1.906493492424488068e-02,-1.901081763207912445e-02
1.008000000000000000e+04,2.900000095367431641e+00,5.000000000000000000e+00,1.138363622116278506e-11,1.406788685542892381e-09,-9.679540991783142090e-02,-1.891611702740192413e-02,-1.881836727261543274e-02
1.008100000000000000e+04,3.000000000000000000e+00,5.000000000000000000e+00,7.300434562429458651e-12,1.543118188784831091e-09,-9.137791395187377930e-02,-1.876860857009887695e-02,-1.865908131003379822e-02
1.008200000000000000e+04,3.099999904632568359e+00,5.000000000000000000e+00,3.469520677701343203e-12,1.684606565355295515e-09,-8.603633195161819458e-02,-1.862354762852191925e-02,-1.852930895984172821e-02
1.008300000000000000e+04,3.200000047683715820e+00,5.000000000000000000e+00,-1.143625531730904643e-13,1.831212959046979449e-09,-8.080600202083587646e-02,-1.848188042640686035e-02,-1.842559315264225006e-02
1.008400000000000000e+04,3.299999952316284180e+00,5.000000000000000000e+00,-3.457813245802410229e-12,1.982898734098625937e-09,-7.571586221456527710e-02,-1.834441721439361572e-02,-1.834469102323055267e-02
1.008500000000000000e+04,3.400000095367431641e+00,5.000000000000000000e+00,-6.568541717488773912e-12,2.139629584618774061e-09,-7.078871130943298340e-02,-1.821170188486576080e-02,-1.828392036259174347e-02
1.008600000000000000e+04,3.500000000000000000e+00,5.000000000000000000e+00,-9.455081682874233451e-12,2.301372870050499841e-09,-6.604267656803131104e-02,-1.808424666523933411e-02,-1.824055239558219910e-02
1.008700000000000000e+04,3.599999904632568359e+00,5.000000000000000000e+00,-1.212662262273234148e-11,2.468099280505953175e-09,-6.149112433195114136e-02,-1.796235516667366028e-02,-1.821238547563552856e-02
1.008800000000000000e+04,3.700000047683715820e+00,5.000000000000000000e+00,-1.459280786486605308e-11,2.639783058810962757e-09,-5.714370310306549072e-02,-1.784625276923179626e-02,-1.819730922579765320e-02
1.008900000000000000e+04,3.799999952316284180e+00,5.000000000000000000e+00,-1.686356956853707345e-11,2.816398447791357285e-09,-5.300687998533248901e-02,-1.773612014949321747e-02,-1.819332316517829895e-02
1.009000000000000000e+04,3.900000095367431641e+00,5.000000000000000000e+00,-1.894901770216339543e-11,2.997924353209668880e-09,-4.908392205834388733e-02,-1.763196289539337158e-02,-1.819888502359390259e-02
1.009100000000000000e+04,4.000000000000000000e+00,5.000000000000000000e+00,-2.085929692863253138e-11,3.184340124917639514e-09,-4.537604376673698425e-02,-1.753383688628673553e-02,-1.821232773363590240e-02
1.009200000000000000e+04,4.099999904632568359e+00,5.000000000000000000e+00,-2.260451201219204620e-11,3.375627777302270260e-09,-4.188205301761627197e-02,-1.744164340198040009e-02,-1.823241822421550751e-02
1.009300000000000000e+04,4.199999809265136719e+00,5.000000000000000000e+00,-2.419463587810533056e-11,3.571771323152006516e-09,-3.859921544790267944e-02,-1.735529676079750061e-02,-1.825792342424392700e-02
1.009400000000000000e+04,4.300000190734863281e+00,5.000000000000000000e+00,-2.563944195843603779e-11,3.772756773656738005e-09,-3.552319854497909546e-02,-1.727462187409400940e-02,-1.828783378005027771e-02
1.009500000000000000e+04,4.400000095367431641e+00,5.000000000000000000e+00,-2.694844000727947275e-11,3.978569473872539675e-09,-3.264886513352394104e-02,-1.719952374696731567e-02,-1.832100376486778259e-02
1.009600000000000000e+04,4.500000000000000000e+00,5.000000000000000000e+00,-2.813085528408088010e-11,4.189198765658375123e-09,-2.996963262557983398e-02,-1.712973788380622864e-02,-1.835684105753898621e-02
1.009700000000000000e+04,4.599999904632568359e+00,5.000000000000000000e+00,-2.919556610359030913e-11,4.404634434962417799e-09,-2.747851237654685974e-02,-1.706507615745067596e-02,-1.839455589652061462e-02
1.009800000000000000e+04,4.699999809265136719e+00,5.000000000000000000e+00,-3.015110383586261378e-11,4.624866711822051002e-09,-2.516787126660346985e-02,-1.700531877577304840e-02,-1.843352802097797394e-02
1.009900000000000000e+04,4.800000190734863281e+00,5.000000000000000000e+00,-3.100560780344707723e-11,4.849889378988336830e-09,-2.302957326173782349e-02,-1.695019192993640900e-02,-1.847328059375286102e-02
1.010000000000000000e+04,4.900000095367431641e+00,5.000000000000000000e+00,-3.176683222028131581e-11,5.079692666498658582e-09,-2.105558104813098907e-02,-1.689953543245792389e-02,-1.851314306259155273e-02
1.010100000000000000e+04,5.000000000000000000e+00,5.000000000000000000e+00,-3.244212884445651923e-11,5.314271689371707907e-09,-1.923719793558120728e-02,-1.685303263366222382e-02,-1.855295524001121521e-02
1.010200000000000000e+04,5.099999904632568359e+00,5.000000000000000000e+00,-3.303845738655830644e-11,5.553621118536966605e-09,-1.756602153182029724e-02,-1.681046932935714722e-02,-1.859231293201446533e-02
1.010300000000000000e+04,5.199999809265136719e+00,5.000000000000000000e+00,-3.356236816243196586e-11,5.797736513102336176e-09,-1.603358983993530273e-02,-1.677161082625389099e-02,-1.863094978034496307e-02
1.010400000000000000e+04,5.300000190734863281e+00,5.000000000000000000e+00,-3.402001597097026320e-11,6.046614764443347667e-09,-1.463144365698099136e-02,-1.673618331551551819e-02,-1.866869628429412842e-02
1.010500000000000000e+04,5.400000095367431641e+00,5.000000000000000000e+00,-3.441717744134820123e-11,6.300250099400273029e-09,-1.335164718329906464e-02,-1.670403406023979187e-02,-1.870516501367092133e-02
1.010600000000000000e+04,5.500000000000000000e+00,5.000000000000000000e+00,-3.475925103302301977e-11,6.558641185705482712e-09,-1.218596938997507095e-02,-1.667487062513828278e-02,-1.874043978750705719e-02
1.010700000000000000e+04,5.599999904632568359e+00,5.000000000000000000e+00,-3.505126050518114766e-11,6.821785358823717615e-09,-1.112677156925201416e-02,-1.664850674569606781e-02,-1.877433992922306061e-02
1.010800000000000000e+04,5.699999809265136719e+00,5.000000000000000000e+00,-3.529788614176077033e-11,7.089680842398138338e-09,-1.016659941524267197e-02,-1.662473566830158234e-02,-1.880678534507751465e-02
1.010900000000000000e+04,5.800000190734863281e+00,5.000000000000000000e+00,-3.550346822089878174e-11,7.362327192339535031e-09,-9.298198856413364410e-03,-1.660333015024662018e-02,-1.883778162300586700e-02
1.011000000000000000e+04,5.900000095367431641e+00,5.000000000000000000e+00,-3.567202783161249613e-11,7.639720855934228894e-09,-8.514991030097007751e-03,-1.658417657017707825e-02,-1.886708475649356842e-02
1.011100000000000000e+04,6.000000000000000000e+00,5.000000000000000000e+00,-3.580727034324659996e-11,7.921861389093010075e-09,-7.810217794030904770e-03,-1.656702905893325806e-02,-1.889490894973278046e-02
1.011200000000000000e+04,6.099999904632568359e+00,5.000000000000000000e+00,-3.591261663049571951e-11,8.208748347726668726e-09,-7.177802734076976776e-03,-1.655174419283866882e-02,-1.892118155956268311e-02
1.011300000000000000e+04,6.199999809265136719e+00,5.000000000000000000e+00,-3.599121001229832473e-11,8.500382620013624546e-09,-6.611909717321395874e-03,-1.653816923499107361e-02,-1.894592121243476868e-02
1.011400000000000000e+04,6.300000190734863281e+00,5.000000000000000000e+00,-3.604593012962453713e-11,8.796763317775457836e-09,-6.106936838477849960e-03,-1.652611978352069855e-02,-1.896920986473560333e-02
1.011500000000000000e+04,6.400000095367431641e+00,5.000000000000000000e+00,-3.607942070105174537e-11,9.097888664655329194e-09,-5.657969042658805847e-03,-1.651553437113761902e-02,-1.899087615311145782e-02
1.011600000000000000e+04,6.500000000000000000e+00,5.000000000000000000e+00,-3.609408952276460525e-11,9.403759548831658321e-09,-5.259909201413393021e-03,-1.650621555745601654e-02,-1.901118457317352295e-02
1.011700000000000000e+04,6.599999904632568359e+00,5.000000000000000000e+00,-3.609213275468370341e-11,9.714375970304445218e-09,-4.908322822302579880e-03,-1.649806462228298187e-02,-1.903011091053485870e-02
1.011800000000000000e+04,6.699999809265136719e+00,5.000000000000000000e+00,-3.607554532880641318e-11,1.002973881725210958e-08,-4.598987288773059845e-03,-1.649097539484500885e-02,-1.904771290719509125e-02
1.011900000000000000e+04,6.800000190734863281e+00,5.000000000000000000e+00,-3.604613829644165435e-11,1.034984897785307112e-08,-4.327873699367046356e-03,-1.648481190204620361e-02,-1.906410232186317444e-02
1.012000000000000000e+04,6.900000095367431641e+00,5.000000000000000000e+00,-3.600555270599770097e-11,1.067470467575049042e-08,-4.091591108590364456e-03,-1.647954992949962616e-02,-1.907912641763687134e-02
1.012100000000000000e+04,7.000000000000000000e+00,5.000000000000000000e+00,-3.595527001132303724e-11,1.100430679912278720e-08,-3.886512247845530510e-03,-1.647503487765789032e-02,-1.909307390451431274e-02
1.012200000000000000e+04,7.099999904632568359e+00,5.000000000000000000e+00,-3.589661554115330944e-11,1.133865623614838114e-08,-3.709615906700491905e-03,-1.647120900452136993e-02,-1.910592801868915558e-02
1.012300000000000000e+04,7.199999809265136719e+00,5.000000000000000000e+00,-3.583078625468694156e-11,1.167775476318411165e-08,-3.558029653504490852e-03,-1.646800339221954346e-02,-1.911775395274162292e-02
1.012400000000000000e+04,7.300000190734863281e+00,5.000000000000000000e+00,-3.575885421103208728e-11,1.202160238022997873e-08,-3.429011441767215729e-03,-1.646531373262405396e-02,-1.912866719067096710e-02
1.012500000000000000e+04,7.400000095367431641e+00,5.000000000000000000e+00,-3.568178044699443774e-11,1.237019731092914299e-08,-3.320391057059168816e-03,-1.646315492689609528e-02,-1.913851685822010040e-02
1.012600000000000000e+04,7.500000000000000000e+00,5.000000000000000000e+00,-3.560041150763026963e-11,1.272354133163844381e-08,-3.229696070775389671e-03,-1.646139845252037048e-02,-1.914758607745170593e-02
1.012700000000000000e+04,7.599999904632568359e+00,5.000000000000000000e+00,-3.551550720182206078e-11,1.308163533053630090e-08,-3.154994919896125793e-03,-1.646002009510993958e-02,-1.915585808455944061e-02
1.012800000000000000e+04,7.699999809265136719e+00,5.000000000000000000e+00,-3.542773366338458629e-11,1.344448019580113396e-08,-3.094439860433340073e-03,-1.645897701382637024e-02,-1.916338875889778137e-02
1.012900000000000000e+04,7.800000190734863281e+00,5.000000000000000000e+00,-3.533767722885272633e-11,1.381207681561136269e-08,-3.046249970793724060e-03,-1.645819097757339478e-02,-1.917028799653053284e-02
1.013000000000000000e+04,7.900000095367431641e+00,5.000000000000000000e+00,-3.524585831526927393e-11,1.418442430178856739e-08,-3.009154694154858589e-03,-1.645770110189914703e-02,-1.917639374732971191e-02
1.013100000000000000e+04,8.000000000000000000e+00,5.000000000000000000e+00,-3.515273142018493502e-11,1.456152265433274806e-08,-2.981522819027304649e-03,-1.645740494132041931e-02,-1.918198354542255402e-02
1.013200000000000000e+04,8.100000381469726562e+00,5.000000000000000000e+00,-3.505867818276442449e-11,1.494337631413600320e-08,-2.962094964459538460e-03,-1.645725965499877930e-02,-1.918708533048629761e-02
1.013300000000000000e+04,8.199999809265136719e+00,5.000000000000000000e+00,-3.496405595604379357e-11,1.532997728759255551e-08,-2.950111404061317444e-03,-1.645735278725624084e-02,-1.919146627187728882e-02
1.013400000000000000e+04,8.300000190734863281e+00,5.000000000000000000e+00,-3.486913535688529464e-11,1.572133712102186109e-08,-2.943936502560973167e-03,-1.645747199654579163e-02,-1.919567026197910309e-02
1.013500000000000000e+04,8.399999618530273438e+00,5.000000000000000000e+00,-3.477418700215118008e-11,1.611744515628288354e-08,-2.943389350548386574e-03,-1.645781099796295166e-02,-1.919915899634361267e-02
1.013600000000000000e+04,8.500000000000000000e+00,5.000000000000000000e+00,-3.467940171142380734e-11,1.651831205151665927e-08,-2.946940949186682701e-03,-1.645813882350921631e-02,-1.920254714787006378e-02
1.013700000000000000e+04,8.600000381469726562e+00,5.000000000000000000e+00,-3.458496336539162996e-11,1.692393425400950946e-08,-2.954383380711078644e-03,-1.645858027040958405e-02,-1.920541003346443176e-02
1.013800000000000000e+04,8.699999809265136719e+00,5.000000000000000000e+00,-3.449102808916748586e-11,1.733430643469091592e-08,-2.965080551803112030e-03,-1.645913533866405487e-02,-1.920781284570693970e-02
1.013900000000000000e+04,8.800000190734863281e+00,5.000000000000000000e+00,-3.439769649671298168e-11,1.774943747534507565e-08,-2.977945143356919289e-03,-1.645962893962860107e-02,-1.921020820736885071e-02
1.014000000000000000e+04,8.899999618530273438e+00,5.000000000000000000e+00,-3.430508307977753191e-11,1.816932027054463106e-08,-2.993199042975902557e-03,-1.646026782691478729e-02,-1.921204291284084320e-02
1.014100000000000000e+04,9.000000000000000000e+00,5.000000000000000000e+00,-3.421324681895931974e-11,1.859396370207377913e-08,-3.009681357070803642e-03,-1.646082848310470581e-02,-1.921392977237701416e-02
1.014200000000000000e+04,9.100000381469726562e+00,5.000000000000000000e+00,-3.412225016430348035e-11,1.902336244086200168e-08,-3.027520840987563133e-03,-1.646144315600395203e-02,-1.921542547643184662e-02
1.014300000000000000e+04,9.199999809265136719e+00,5.000000000000000000e+00,-3.403214168806734108e-11,1.945751293419561989e-08,-3.046386409550905228e-03,-1.646212115883827209e-02,-1.921658962965011597e-02
1.014400000000000000e+04,9.300000190734863281e+00,5.000000000000000000e+00,-3.394293526803870975e-11,1.989642406385883078e-08,-3.065468044951558113e-03,-1.646269299089908600e-02,-1.921786367893218994e-02
1.014500000000000000e+04,9.399999618530273438e+00,5.000000000000000000e+00,-3.385466212924015394e-11,2.034008872442427673e-08,-3.085238160565495491e-03,-1.646337099373340607e-02,-1.921868883073329926e-02
1.014600000000000000e+04,9.500000000000000000e+00,5.000000000000000000e+00,-3.376730839388386585e-11,2.078851402131931536e-08,-3.104761475697159767e-03,-1.646393910050392151e-02,-1.921966299414634705e-02
1.014700000000000000e+04,9.600000381469726562e+00,5.000000000000000000e+00,-3.368088100086374936e-11,2.124169640183026786e-08,-3.124370472505688667e-03,-1.646453514695167542e-02,-1.922034099698066711e-02
1.014800000000000000e+04,9.699999809265136719e+00,5.000000000000000000e+00,-3.359537301128590059e-11,2.169963231324345543e-08,-3.143916372209787369e-03,-1.646517030894756317e-02,-1.922077313065528870e-02
1.014900000000000000e+04,9.800000190734863281e+00,5.000000000000000000e+00,-3.351075666957470389e-11,2.216232886098623567e-08,-3.162752138450741768e-03,-1.646568067371845245e-02,-1.922139339148998260e-02
1.015000000000000000e+04,9.899999618530273438e+00,5.000000000000000000e+00,-3.342702503683625537e-11,2.262978071598809038e-08,-3.181496635079383850e-03,-1.646628044545650482e-02,-1.922163739800453186e-02
1.015100000000000000e+04,1.000000000000000000e+01,5.000000000000000000e+00,-3.334413301026017962e-11,2.310199320731953776e-08,-3.199344268068671227e-03,-1.646675914525985718e-02,-1.922209560871124268e-02
1.015200000000000000e+04,1.010000038146972656e+01,5.000000000000000000e+00,-3.326206671205866883e-11,2.357896455862373841e-08,-3.216737415641546249e-03,-1.646725460886955261e-02,-1.922232098877429962e-02
1.015300000000000000e+04,1.019999980926513672e+01,5.000000000000000000e+00,-3.318079491720915541e-11,2.406068944083017414e-08,-3.233647439628839493e-03,-1.646778546273708344e-02,-1.922234147787094116e-02
1.015400000000000000e+04,1.030000019073486328e+01,5.000000000000000000e+00,-3.310027252290126398e-11,2.454717673572304193e-08,-3.249484347179532051e-03,-1.646818034350872040e-02,-1.922261714935302734e-02
1.015500000000000000e+04,1.039999961853027344e+01,5.000000000000000000e+00,-3.302048218190023476e-11,2.503841756151814479e-08,-3.264983883127570152e-03,-1.646866835653781891e-02,-1.922254450619220734e-02
1.015600000000000000e+04,1.050000000000000000e+01,5.000000000000000000e+00,-3.294136838305483650e-11,2.553442079999967973e-08,-3.279370954260230064e-03,-1.646902598440647125e-02,-1.922274194657802582e-02
1.015700000000000000e+04,1.060000038146972656e+01,5.000000000000000000e+00,-3.286291030968335747e-11,2.603518467481080734e-08,-3.293179441243410110e-03,-1.646940223872661591e-02,-1.922273077070713043e-02
1.015800000000000000e+04,1.069999980926513672e+01,5.000000000000000000e+00,-3.278507673676323009e-11,2.654070030416733061e-08,-3.306414466351270676e-03,-1.646981388330459595e-02,-1.922255381941795349e-02
1.015900000000000000e+04,1.080000019073486328e+01,5.000000000000000000e+00,-3.270781562259017505e-11,2.705098012256712536e-08,-3.318535163998603821e-03,-1.647009141743183136e-02,-1.922265812754631042e-02
1.016000000000000000e+04,1.089999961853027344e+01,5.000000000000000000e+00,-3.263110961992943260e-11,2.756601347186915518e-08,-3.330314764752984047e-03,-1.647046394646167755e-02,-1.922244019806385040e-02
1.016100000000000000e+04,1.100000000000000000e+01,5.000000000000000000e+00,-3.255490668707672341e-11,2.808581101021445647e-08,-3.341010073199868202e-03,-1.647070981562137604e-02,-1.922251842916011810e-02
1.016200000000000000e+04,1.110000038146972656e+01,5.000000000000000000e+00,-3.247918947679728774e-11,2.861036740853251104e-08,-3.351181512698531151e-03,-1.647097803652286530e-02,-1.922240667045116425e-02
1.016300000000000000e+04,1.119999980926513672e+01,5.000000000000000000e+00,-3.240392676406855799e-11,2.913967733775280067e-08,-3.360856324434280396e-03,-1.647128537297248840e-02,-1.922214590013027191e-02
1.016400000000000000e+04,1.130000019073486328e+01,5.000000000000000000e+00,-3.232906997663320681e-11,2.967375145601636177e-08,-3.369511803612112999e-03,-1.647146046161651611e-02,-1.922218501567840576e-02
1.016500000000000000e+04,1.139999961853027344e+01,5.000000000000000000e+00,-3.225461564504428225e-11,3.021257910518215795e-08,-3.377935616299510002e-03,-1.647173613309860229e-02,-1.922191493213176727e-02
1.016600000000000000e+04,1.150000000000000000e+01,5.000000000000000000e+00,-3.218051172759750500e-11,3.075616916703438619e-08,-3.385395742952823639e-03,-1.647188887000083923e-02,-1.922195404767990112e-02
1.016700000000000000e+04,1.160000038146972656e+01,5.000000000000000000e+00,-3.210674087705811530e-11,3.130451986521620711e-08,-3.392461221665143967e-03,-1.647206954658031464e-02,-1.922181434929370880e-02
1.016800000000000000e+04,1.169999980926513672e+01,5.000000000000000000e+00,-3.203328921563830534e-11,3.185762409430026310e-08,-3.399165347218513489e-03,-1.647229120135307312e-02,-1.922153495252132416e-02
1.016900000000000000e+04,1.180000019073486328e+01,5.000000000000000000e+00,-3.196011164052769971e-11,3.241549606514126936e-08,-3.404989605769515038e-03,-1.647238805890083313e-02,-1.922156289219856262e-02
1.017000000000000000e+04,1.189999961853027344e+01,5.000000000000000000e+00,-3.188720468227934646e-11,3.297811801417083188e-08,-3.410723758861422539e-03,-1.647258922457695007e-02,-1.922128908336162567e-02
1.017100000000000000e+04,1.200000000000000000e+01,5.000000000000000000e+00,-3.181453017697677410e-11,3.354550415224366589e-08,-3.415636485442519188e-03,-1.647267118096351624e-02,-1.922133006155490875e-02
1.017200000000000000e+04,1.210000038146972656e+01,5.000000000000000000e+00,-3.174207424683217482e-11,3.411765092664609256e-08,-3.420296357944607735e-03,-1.647278480231761932e-02,-1.922119595110416412e-02
1.017300000000000000e+04,1.219999980926513672e+01,5.000000000000000000e+00,-3.166982995295164471e-11,3.469454767923707550e-08,-3.424735041335225105e-03,-1.647294685244560242e-02,-1.922092959284782410e-02
1.017400000000000000e+04,1.230000019073486328e+01,5.000000000000000000e+00,-3.159775913141871229e-11,3.527621217358500871e-08,-3.428431227803230286e-03,-1.647298596799373627e-02,-1.922097057104110718e-02
1.017500000000000000e+04,1.239999961853027344e+01,5.000000000000000000e+00,-3.152586872112728145e-11,3.586263019883517700e-08,-3.432171652093529701e-03,-1.647313125431537628e-02,-1.922071538865566254e-02
1.017600000000000000e+04,1.250000000000000000e+01,5.000000000000000000e+00,-3.145411708871392875e-11,3.645381241312861675e-08,-3.435221035033464432e-03,-1.647316478192806244e-02,-1.922077499330043793e-02
1.017700000000000000e+04,1.260000038146972656e+01,5.000000000000000000e+00,-3.138250770362560615e-11,3.704975526375164918e-08,-3.438143525272607803e-03,-1.647323183715343475e-02,-1.922066323459148407e-02
1.017800000000000000e+04,1.269999980926513672e+01,5.000000000000000000e+00,-3.131103015752145780e-11,3.765044809256323788e-08,-3.440966131165623665e-03,-1.647334918379783630e-02,-1.922041922807693481e-02
1.017900000000000000e+04,1.280000019073486328e+01,5.000000000000000000e+00,-3.123965669482586804e-11,3.825590866313177685e-08,-3.443162422627210617e-03,-1.647334918379783630e-02,-1.922048442065715790e-02
1.018000000000000000e+04,1.289999961853027344e+01,5.000000000000000000e+00,-3.116839425443274081e-11,3.886612276460255089e-08,-3.445514012128114700e-03,-1.647345907986164093e-02,-1.922025345265865326e-02
1.018100000000000000e+04,1.300000000000000000e+01,5.000000000000000000e+00,-3.109721508076646046e-11,3.948110105511659640e-08,-3.447280265390872955e-03,-1.647345907986164093e-02,-1.922033727169036865e-02
1.018200000000000000e+04,1.310000038146972656e+01,5.000000000000000000e+00,-3.102611570438007504e-11,4.010083642924655578e-08,-3.449019975960254669e-03,-1.647349447011947632e-02,-1.922025159001350403e-02
1.018300000000000000e+04,1.319999980926513672e+01,5.000000000000000000e+00,-3.095510306416748847e-11,4.072532888699242903e-08,-3.450755029916763306e-03,-1.647358387708663940e-02,-1.922002993524074554e-02
1.018400000000000000e+04,1.330000019073486328e+01,5.000000000000000000e+00,-3.088414246565918120e-11,4.135458198106789496e-08,-3.451953874900937080e-03,-1.647355780005455017e-02,-1.922012120485305786e-02
1.018500000000000000e+04,1.339999961853027344e+01,5.000000000000000000e+00,-3.081325472553686495e-11,4.198859215875927475e-08,-3.453392535448074341e-03,-1.647364534437656403e-02,-1.921991258859634399e-02
1.018600000000000000e+04,1.350000000000000000e+01,5.000000000000000000e+00,-3.074240861877797215e-11,4.262736652549392602e-08,-3.454325487837195396e-03,-1.647362299263477325e-02,-1.922002062201499939e-02
1.018700000000000000e+04,1.360000038146972656e+01,5.000000000000000000e+00,-3.067160761482945475e-11,4.327089797584449116e-08,-3.455306869000196457e-03,-1.647363975644111633e-02,-1.921995542943477631e-02
1.018800000000000000e+04,1.369999980926513672e+01,5.000000000000000000e+00,-3.060085865258521665e-11,4.391918295709729136e-08,-3.456353442743420601e-03,-1.647371239960193634e-02,-1.921975798904895782e-02
1.018900000000000000e+04,1.380000019073486328e+01,5.000000000000000000e+00,-3.053013397646964222e-11,4.457223568010704184e-08,-3.456929000094532967e-03,-1.647367142140865326e-02,-1.921986974775791168e-02
1.019000000000000000e+04,1.389999961853027344e+01,5.000000000000000000e+00,-3.045945440316444319e-11,4.523003838130534859e-08,-3.457805374637246132e-03,-1.647374406456947327e-02,-1.921968348324298859e-02
1.019100000000000000e+04,1.400000000000000000e+01,5.000000000000000000e+00,-3.038879217709400393e-11,4.589260882426060562e-08,-3.458232618868350983e-03,-1.647371053695678711e-02,-1.921981014311313629e-02
1.019200000000000000e+04,1.410000038146972656e+01,5.000000000000000000e+00,-3.031815770659918030e-11,4.655993635083177651e-08,-3.458760445937514305e-03,-1.647371612489223480e-02,-1.921976543962955475e-02
1.019300000000000000e+04,1.419999980926513672e+01,5.000000000000000000e+00,-3.024755099167997230e-11,4.723201740830518247e-08,-3.459401894360780716e-03,-1.647377945482730865e-02,-1.921958476305007935e-02
1.019400000000000000e+04,1.430000019073486328e+01,5.000000000000000000e+00,-3.017695468510162016e-11,4.790886620753553871e-08,-3.459616564214229584e-03,-1.647372916340827942e-02,-1.921971514821052551e-02
1.019500000000000000e+04,1.439999961853027344e+01,5.000000000000000000e+00,-3.010638613409888364e-11,4.859046498495445121e-08,-3.460172796621918678e-03,-1.647379621863365173e-02,-1.921954378485679626e-02
1.019600000000000000e+04,1.450000000000000000e+01,5.000000000000000000e+00,-3.003582452199005104e-11,4.927682795141663519e-08,-3.460316220298409462e-03,-1.647375710308551788e-02,-1.921968720853328705e-02
1.019700000000000000e+04,1.460000038146972656e+01,5.000000000000000000e+00,-2.996527331822207429e-11,4.996795510692209064e-08,-3.460593288764357567e-03,-1.647375896573066711e-02,-1.921965740621089935e-02
1.019800000000000000e+04,1.469999980926513672e+01,5.000000000000000000e+00,-2.989474293113580927e-11,5.066382868790242355e-08,-3.461013082414865494e-03,-1.647381857037544250e-02,-1.921949163079261780e-02
1.019900000000000000e+04,1.480000019073486328e+01,5.000000000000000000e+00,-2.982421601349649620e-11,5.136447356335338554e-08,-3.461031010374426842e-03,-1.647376827895641327e-02,-1.921963319182395935e-02
1.020000000000000000e+04,1.489999961853027344e+01,5.000000000000000000e+00,-2.975370297364499095e-11,5.206986841699290380e-08,-3.461410989984869957e-03,-1.647383347153663635e-02,-1.921947486698627472e-02
1.020100000000000000e+04,1.500000000000000000e+01,5.000000000000000000e+00,-2.968319340324043765e-11,5.278002745967569354e-08,-3.461395157501101494e-03,-1.647379435598850250e-02,-1.921962760388851166e-02
1.020200000000000000e+04,1.510000038146972656e+01,5.000000000000000000e+00,-2.961268730228283630e-11,5.349494713868807594e-08,-3.461524145677685738e-03,-1.647379994392395020e-02,-1.921960711479187012e-02
1.020300000000000000e+04,1.519999980926513672e+01,5.000000000000000000e+00,-2.954219507911304277e-11,5.421462034860269341e-08,-3.461801912635564804e-03,-1.647386327385902405e-02,-1.921944692730903625e-02
1.020400000000000000e+04,1.530000019073486328e+01,5.000000000000000000e+00,-2.947169591704934533e-11,5.493905774756058236e-08,-3.461678279563784599e-03,-1.647381670773029327e-02,-1.921959407627582550e-02
1.020500000000000000e+04,1.539999961853027344e+01,5.000000000000000000e+00,-2.940120716332650375e-11,5.566824867742070637e-08,-3.461910411715507507e-03,-1.647388935089111328e-02,-1.921943761408329010e-02
1.020600000000000000e+04,1.550000000000000000e+01,5.000000000000000000e+00,-2.933071147070975826e-11,5.640220379632410186e-08,-3.461732063442468643e-03,-1.647385954856872559e-02,-1.921959035098552704e-02
1.020700000000000000e+04,1.560000038146972656e+01,5.000000000000000000e+00,-2.926020883919910887e-11,5.714091955155709002e-08,-3.461675718426704407e-03,-1.647387444972991943e-02,-1.921956427395343781e-02
1.020800000000000000e+04,1.569999980926513672e+01,5.000000000000000000e+00,-2.918971314658236338e-11,5.788438883769231325e-08,-3.461734624579548836e-03,-1.647395081818103790e-02,-1.921939663589000702e-02
1.020900000000000000e+04,1.580000019073486328e+01,5.000000000000000000e+00,-2.911919663728390617e-11,5.863262231287080795e-08,-3.461346495896577835e-03,-1.647391915321350098e-02,-1.921953074634075165e-02
1.021000000000000000e+04,1.589999961853027344e+01,5.000000000000000000e+00,-2.904867665853849701e-11,5.938560576623785892e-08,-3.461254993453621864e-03,-1.647400856018066406e-02,-1.921935565769672394e-02
1.021100000000000000e+04,1.600000000000000000e+01,5.000000000000000000e+00,-2.897812718949399624e-11,6.014335696136186016e-08,-3.460678970441222191e-03,-1.647399738430976868e-02,-1.921948231756687164e-02
1.021200000000000000e+04,1.610000038146972656e+01,5.000000000000000000e+00,-2.890755169959735582e-11,6.090586879281545407e-08,-3.460135543718934059e-03,-1.647404395043849945e-02,-1.921942643821239471e-02
1.021300000000000000e+04,1.620000076293945312e+01,5.000000000000000000e+00,-2.883693978050771989e-11,6.167314126059864066e-08,-3.459363011643290520e-03,-1.647407189011573792e-02,-1.921933703124523163e-02
1.021400000000000000e+04,1.629999923706054688e+01,5.000000000000000000e+00,-2.876629663639551637e-11,6.244515304842934711e-08,-3.458757651969790459e-03,-1.647423394024372101e-02,-1.921896077692508698e-02
1.021500000000000000e+04,1.639999961853027344e+01,5.000000000000000000e+00,-2.869557889917384585e-11,6.322194678887171904e-08,-3.457180690020322800e-03,-1.647420227527618408e-02,-1.921918988227844238e-02
1.021600000000000000e+04,1.650000000000000000e+01,5.000000000000000000e+00,-2.862478656884270833e-11,6.400349406021632603e-08,-3.455657046288251877e-03,-1.647428609430789948e-02,-1.921905577182769775e-02
1.021700000000000000e+04,1.660000038146972656e+01,5.000000000000000000e+00,-2.855389882872039209e-11,6.478980196789052570e-08,-3.453687066212296486e-03,-1.647437177598476410e-02,-1.921888068318367004e-02
1.021800000000000000e+04,1.670000076293945312e+01,5.000000000000000000e+00,-2.848289139267823344e-11,6.558087051189431804e-08,-3.451180411502718925e-03,-1.647444441914558411e-02,-1.921864598989486694e-02
1.021900000000000000e+04,1.679999923706054688e+01,5.000000000000000000e+00,-2.841175385237537654e-11,6.637667837594563025e-08,-3.448472358286380768e-03,-1.647465676069259644e-02,-1.921809464693069458e-02
1.022000000000000000e+04,1.689999961853027344e+01,5.000000000000000000e+00,-2.834041681887278230e-11,6.717726108718125033e-08,-3.444349626079201698e-03,-1.647468097507953644e-02,-1.921810954809188843e-02
1.022100000000000000e+04,1.700000000000000000e+01,5.000000000000000000e+00,-2.826886121021221498e-11,6.798260443474646308e-08,-3.439753549173474312e-03,-1.647482812404632568e-02,-1.921771466732025146e-02
1.022200000000000000e+04,1.710000038146972656e+01,5.000000000000000000e+00,-2.819703151524244333e-11,6.879270841864126851e-08,-3.434086684137582779e-03,-1.647497899830341339e-02,-1.921722479164600372e-02
1.022300000000000000e+04,1.720000076293945312e+01,5.000000000000000000e+00,-2.812486875336528414e-11,6.960757303886566660e-08,-3.427144140005111694e-03,-1.647512428462505341e-02,-1.921661198139190674e-02
1.022400000000000000e+04,1.729999923706054688e+01,5.000000000000000000e+00,-2.805232261759993406e-11,7.042718408456494217e-08,-3.419126383960247040e-03,-1.647541299462318420e-02,-1.921560429036617279e-02
1.022500000000000000e+04,1.739999961853027344e+01,5.000000000000000000e+00,-2.797927514675002669e-11,7.125156287202116800e-08,-3.408661810681223869e-03,-1.647552102804183960e-02,-1.921507157385349274e-02
1.022600000000000000e+04,1.750000000000000000e+01,5.000000000000000000e+00,-2.790564480881219112e-11,7.208070229580698651e-08,-3.396505257114768028e-03,-1.647575199604034424e-02,-1.921401917934417725e-02
1.022700000000000000e+04,1.760000038146972656e+01,5.000000000000000000e+00,-2.783131364259006091e-11,7.291460235592239769e-08,-3.381838556379079819e-03,-1.647599227726459503e-02,-1.921274140477180481e-02
1.022800000000000000e+04,1.770000076293945312e+01,5.000000000000000000e+00,-2.775613940075860597e-11,7.375326305236740154e-08,-3.364195581525564194e-03,-1.647622697055339813e-02,-1.921118237078189850e-02
1.022900000000000000e+04,1.779999923706054688e+01,5.000000000000000000e+00,-2.767997289709889230e-11,7.459667017428728286e-08,-3.343464573845267296e-03,-1.647660508751869202e-02,-1.920903474092483521e-02
1.023000000000000000e+04,1.789999961853027344e+01,5.000000000000000000e+00,-2.760258514811209096e-11,7.544484503796411445e-08,-3.317900467664003372e-03,-1.647679321467876434e-02,-1.920713298022747040e-02
1.023100000000000000e+04,1.800000000000000000e+01,5.000000000000000000e+00,-2.752375931336370485e-11,7.629778053797053872e-08,-3.287806874141097069e-03,-1.647709682583808899e-02,-1.920442655682563782e-02
1.023200000000000000e+04,1.810000038146972656e+01,5.000000000000000000e+00,-2.744321610237410169e-11,7.715548377973391325e-08,-3.251817543059587479e-03,-1.647738739848136902e-02,-1.920114643871784210e-02
1.023300000000000000e+04,1.820000076293945312e+01,5.000000000000000000e+00,-2.736062071351241798e-11,7.801793344697216526e-08,-3.208792768418788910e-03,-1.647764444351196289e-02,-1.919714733958244324e-02
1.023400000000000000e+04,1.829999923706054688e+01,5.000000000000000000e+00,-2.727559324233741478e-11,7.888513664511265233e-08,-3.157786093652248383e-03,-1.647799834609031677e-02,-1.919201761484146118e-02
1.023500000000000000e+04,1.839999961853027344e+01,5.000000000000000000e+00,-2.718762021070020296e-11,7.975710758501008968e-08,-3.096002852544188499e-03,-1.647809520363807678e-02,-1.918643712997436523e-02
1.023600000000000000e+04,1.850000000000000000e+01,5.000000000000000000e+00,-2.709614130291804202e-11,8.063383916123711970e-08,-3.022408345714211464e-03,-1.647820323705673218e-02,-1.917915977537631989e-02
1.023700000000000000e+04,1.860000038146972656e+01,5.000000000000000000e+00,-2.700044875181273341e-11,8.151533137379374239e-08,-2.933904994279146194e-03,-1.647814735770225525e-02,-1.917013153433799744e-02
1.023800000000000000e+04,1.870000076293945312e+01,5.000000000000000000e+00,-2.689967172619933677e-11,8.240158422267995775e-08,-2.827068557962775230e-03,-1.647782512009143829e-02,-1.915882155299186707e-02
1.023900000000000000e+04,1.879999923706054688e+01,5.000000000000000000e+00,-2.679275551420445822e-11,8.329256928618633538e-08,-2.697878284379839897e-03,-1.647724024951457977e-02,-1.914424821734428406e-02
1.024000000000000000e+04,1.889999961853027344e+01,5.000000000000000000e+00,-2.667830539815341240e-11,8.418833630230437848e-08,-2.539300592616200447e-03,-1.647583954036235809e-02,-1.912624575197696686e-02
1.024100000000000000e+04,1.900000000000000000e+01,5.000000000000000000e+00,-2.655460053235803031e-11,8.508885684932465665e-08,-2.344297943636775017e-03,-1.647354848682880402e-02,-1.910228095948696136e-02
1.024200000000000000e+04,1.910000038146972656e+01,5.000000000000000000e+00,-2.641936842906478233e-11,8.599412382181981229e-08,-2.101005287840962410e-03,-1.646958105266094208e-02,-1.907024346292018890e-02
1.024300000000000000e+04,1.920000076293945312e+01,5.000000000000000000e+00,-2.626955424023247332e-11,8.690415143064456061e-08,-1.792708411812782288e-03,-1.646271347999572754e-02,-1.902620308101177216e-02
1.024400000000000000e+04,1.929999923706054688e+01,5.000000000000000000e+00,-2.610094258781447962e-11,8.781891125408947119e-08,-1.394325401633977890e-03,-1.645074225962162018e-02,-1.896324194967746735e-02
1.024500000000000000e+04,1.939999961853027344e+01,5.000000000000000000e+00,-2.590736999930065565e-11,8.873843881929133204e-08,-8.635330596007406712e-04,-1.642841659486293793e-02,-1.887014694511890411e-02
1.024600000000000000e+04,1.950000000000000000e+01,5.000000000000000000e+00,-2.567948111098505848e-11,8.966269859911335516e-08,-1.297231501666828990e-04,-1.638461463153362274e-02,-1.872203871607780457e-02
1.024700000000000000e+04,1.960000038146972656e+01,5.000000000000000000e+00,-2.540177096443940741e-11,9.059169059355554054e-08,9.448755881749093533e-04,-1.629006490111351013e-02,-1.846668869256973267e-02
1.024800000000000000e+04,1.970000076293945312e+01,5.000000000000000000e+00,-2.504565999039698454e-11,9.152540059176317300e-08,2.662588842213153839e-03,-1.605236344039440155e-02,-1.796955801546573639e-02
1.024900000000000000e+04,1.979999923706054688e+01,5.000000000000000000e+00,-2.455009286139731017e-11,9.246375753946267650e-08,5.779218859970569611e-03,-1.542619522660970688e-02,-1.685887947678565979e-02
1.025000000000000000e+04,1.989999961853027344e+01,5.000000000000000000e+00,-2.376388322233857764e-11,9.340666906609840225e-08,1.252425368875265121e-02,-1.328694727271795273e-02,-1.391702331602573395e-02
1.025100000000000000e+04,2.000000000000000000e+01,5.000000000000000000e+00,-2.239963770023223333e-11,9.435330383666951093e-08,2.319916896522045135e-02,-1.816625706851482391e-02,-1.116654928773641586e-02
